#LAMMPS data file generated with python script of Jacob Metcalfe to simulate freely-rotating chain

1050 atoms
1 atom types
1020 bonds
1 bond types
990 angles
1 angle types

0 10.729762879354062 xlo xhi
0 10.729762879354062 ylo yhi
0 10.729762879354062 zlo zhi

Masses

1 1

Atoms # angle

1 1 1 4.654900354960716 4.087437819236097 4.572142181248154 0 0 -1
2 1 1 5.111212464470942 4.038080570305588 5.421005020988673 0 0 -1
3 1 1 4.534704024503311 4.104568720666235 6.192005892912763 0 0 -1
4 1 1 4.12846747737918 3.272382301778716 6.463414499997782 0 0 -1
5 1 1 3.851680974736926 3.2424482878153498 7.387383215249067 0 0 -1
6 1 1 3.7588502848709737 2.3533407932213315 7.750832422258459 0 0 -1
7 1 1 2.8474905176643084 2.0501731237406418 7.844308295609064 0 0 -1
8 1 1 2.19408984425392 2.756573669009322 7.917046384881196 0 0 -1
9 1 1 2.1768154996381206 3.2019003109645396 8.772973238638563 0 0 -1
10 1 1 2.4599389108167156 4.1242007139599615 8.752282644710926 0 0 -1
11 1 1 2.3125843786165294 4.57136006486153 7.909928706783791 0 0 -1
12 1 1 2.605980751679665 5.490357309706873 7.88568757974595 0 0 -1
13 1 1 2.8860135417080777 5.845772583077711 8.73802942429169 0 0 -1
14 1 1 3.704456972157219 5.467681628481621 9.082155246059337 0 0 -1
15 1 1 4.123118872010817 5.984067358135995 9.781650057920219 0 0 -1
16 1 1 3.732206434735293 6.854085713666642 9.928212424928466 0 0 -1
17 1 1 3.7261851820983267 7.142354140820881 0.11936759753272064 0 0 0
18 1 1 3.984494620281639 8.062258729042256 0.2545592493263449 0 0 0
19 1 1 3.8292119956510575 8.396724167857904 1.1463244520146372 0 0 0
20 1 1 2.8988130108432326 8.475539197751388 1.3899859387774391 0 0 0
21 1 1 2.6527906223234474 8.004873988332967 2.1956981982039263 0 0 0
22 1 1 1.7028693847266858 7.888102263444914 2.319144569674714 0 0 0
23 1 1 1.4123249120663086 6.968691318541801 2.3577764709852733 0 0 0
24 1 1 1.0402910736453386 6.6997794958708 3.2066005132328517 0 0 0
25 1 1 0.12385813302651627 6.967483406593818 3.346993823373836 0 0 0
26 1 1 10.525536395653955 6.824211569847847 4.243129228914082 -1 0 0
27 1 1 0.24752855336894086 7.337908933610251 4.92375938174769 0 0 0
28 1 1 10.390851065212924 7.776660721217542 5.552098115414534 -1 0 0
29 1 1 0.10707667853031033 8.166132474990668 6.314089596612018 0 0 0
30 1 1 1.059044885067891 8.011218340770576 6.345444735911084 0 0 0
31 1 1 1.539585030141815 8.582547532289645 6.956909472335429 0 0 0
32 1 1 2.16213687285326 9.188249041780661 6.536457472058476 0 0 0
33 1 1 2.366094066603015 8.98071897639404 5.616371750465998 0 0 0
34 1 1 2.6146232344605327 8.062018918533632 5.456846027112899 0 0 0
35 1 1 3.4024376466510518 7.770224496926911 5.931640158778521 0 0 0
36 2 1 2.0258392305982102 3.3890109158208634 10.422708143094436 1 1 -1
37 2 1 2.4414659035849375 4.0986981899819455 0.19774566151735584 1 1 0
38 2 1 2.089946711373244 4.979254847780446 0.01808144717968929 1 1 0
39 2 1 1.2656384879054343 4.988607665405995 10.246193573991901 1 1 -1
40 2 1 0.46604626967200424 4.965305913965938 0.05618463202076107 1 1 0
41 2 1 10.716180137216778 4.128394603849362 0.028608010947767326 0 1 0
42 2 1 0.3973920273724669 3.4126334974132213 0.5286187881713396 1 1 0
43 2 1 1.1584781305458431 3.6780387776239767 1.059215603835188 1 1 0
44 2 1 1.172693462422572 3.3135610571374734 1.952624197709568 1 1 0
45 2 1 0.6436999539039991 2.5150086880961275 2.0696924762638584 1 1 0
46 2 1 0.45270443536433724 2.035927145843978 1.2540782367050642 1 1 0
47 2 1 10.243399211344341 1.9019006422466056 1.0768411255829466 0 1 0
48 2 1 9.755647725795656 1.4767399806304216 1.7927754103878701 0 1 0
49 2 1 10.307357257519806 1.0204238729112731 2.4397817491827585 0 1 0
50 2 1 10.445845306401493 0.0824760938347282 2.2600596747391304 0 1 0
51 2 1 10.620308118831877 10.274361844916267 3.042028933700239 0 0 0
52 2 1 9.912335069138452 9.661244078650387 3.2745923994400883 0 0 0
53 2 1 9.238796118148581 9.547403264687585 2.5929689325789838 0 0 0
54 2 1 8.403468024157853 9.995306930337215 2.77417125510118 0 0 0
55 2 1 7.618674825260275 9.517700093525018 2.4788471206415075 0 0 0
56 2 1 7.786349233527428 8.617076891622993 2.1755516524788447 0 0 0
57 2 1 8.686539236711695 8.303292553326937 2.325292586118291 0 0 0
58 2 1 8.79534176514809 7.753338288265304 3.1107461596325816 0 0 0
59 2 1 8.17332579759658 7.942882692103945 3.8237637296015237 0 0 0
60 2 1 8.329165782163786 8.777642210993791 4.282147242429904 0 0 0
61 2 1 7.855455446713858 8.872307189792433 5.117528628311209 0 0 0
62 2 1 7.678139491488523 8.041731676476557 5.575708034987894 0 0 0
63 2 1 7.303941151055479 7.347533372620131 5.01957017713247 0 0 0
64 2 1 7.1481578363429445 6.5096969485667096 5.472324730269769 0 0 0
65 2 1 7.876862525717263 5.87971884936232 5.4145140893227754 0 0 0
66 2 1 8.31398507802988 5.692202639500403 6.254148858313869 0 0 0
67 2 1 8.102341334814648 6.310047975856492 6.9645706107263905 0 0 0
68 2 1 7.159112634004693 6.470278751851947 7.090549642284259 0 0 0
69 2 1 6.613373086932475 6.289305111022878 6.315538746821179 0 0 0
70 2 1 6.648289828006639 6.969014615861337 5.631432899583331 0 0 0
71 3 1 0.05257788013124376 5.261149997745299 7.184234767333021 1 0 0
72 3 1 10.069880853397695 4.62353229386617 7.053584295012648 0 0 0
73 3 1 9.223981354394436 5.012121865693823 6.799267205038656 0 0 0
74 3 1 9.109567468341623 5.9336583770732 7.061764673356013 0 0 0
75 3 1 9.867007793681918 6.318527672502142 7.519350489334195 0 0 0
76 3 1 10.042543102950688 7.241825743964006 7.300414365236957 0 0 0
77 3 1 9.739595099046515 7.876481189940673 7.961216886284383 0 0 0
78 3 1 10.07448164587273 7.719802352959885 8.8525797432608 0 0 0
79 3 1 10.706765295318071 8.377923258827273 9.166138764665652 0 0 0
80 3 1 10.42533410846372 9.29358487283554 9.049582787995528 0 0 0
81 3 1 10.411759490236447 9.596678693726146 8.133517907390491 0 0 0
82 3 1 10.513821816742364 8.896997107087586 7.476818616369748 0 0 0
83 3 1 9.721170455640685 8.71377092772299 6.957822482531444 0 0 0
84 3 1 9.017650718249472 8.265322997639537 7.442775504075662 0 0 0
85 3 1 9.255460677857535 7.393869211805866 7.782245270428094 0 0 0
86 3 1 8.504500875454996 6.83297913306478 8.01178109496396 0 0 0
87 3 1 7.8163996504080515 7.27270114291899 8.525966137666167 0 0 0
88 3 1 6.914631418960564 7.0433746141092035 8.270137288753219 0 0 0
89 3 1 6.274989662734883 7.060315023134342 8.99249208124413 0 0 0
90 3 1 5.432893966686207 6.632810061821589 8.794150591007519 0 0 0
91 3 1 4.90196615291155 6.411288466227623 9.568920775801674 0 0 0
92 3 1 3.9617686203300906 6.287540677196949 9.390202885153432 0 0 0
93 3 1 3.6884610567098184 5.367105268701138 9.293628383057381 0 0 0
94 3 1 3.1377272705375754 5.190000120199884 8.521261201502691 0 0 0
95 3 1 2.2320629292832894 5.5160431811393655 8.58976684647925 0 0 0
96 3 1 1.9772107419303033 6.1430613040068325 7.901927013235234 0 0 0
97 3 1 1.5899957548389896 6.964027079314969 8.229501049972862 0 0 0
98 3 1 2.197904368182458 7.713012337893231 8.255829746394772 0 0 0
99 3 1 3.12135317699385 7.48754546457444 8.089601028837693 0 0 0
100 3 1 3.6949106239395366 8.24376670380984 7.915284384817621 0 0 0
101 3 1 3.2464858526161295 9.009889399619466 7.536871595090656 0 0 0
102 3 1 3.191129485449067 9.773951608477443 8.123701735428671 0 0 0
103 3 1 4.042420875240475 10.162235671106828 8.359844608230361 0 0 0
104 3 1 4.6371676897754455 9.569015798880555 8.834809248805161 0 0 0
105 3 1 5.5758250988985285 9.74673276751254 8.698559671343066 0 0 0
106 4 1 4.176704851935721 1.5383412200944449 2.998418098566999 0 0 0
107 4 1 3.9984809869636377 1.6636192855107836 3.9385067434723355 0 0 0
108 4 1 3.424110926400604 0.9951611721942459 4.331556084230097 0 0 0
109 4 1 2.8256689302625153 1.3284198518148518 5.01128458129035 0 0 0
110 4 1 2.3036940540833086 2.095678946227265 4.746556965278824 0 0 0
111 4 1 1.522114833259615 2.25700754360207 5.289080702313165 0 0 0
112 4 1 1.3988486151773742 1.6309993188451308 6.013058700608947 0 0 0
113 4 1 1.5975511816779246 0.713488724031377 5.7896384721814265 0 0 0
114 4 1 2.157137015207687 0.6011342222893852 5.011522053609559 0 0 0
115 4 1 2.102731169444274 1.3198061989392507 4.369824621851456 0 0 0
116 4 1 2.487235961023263 1.1192410635571406 3.5077604179072512 0 0 0
117 4 1 2.3591151607863785 0.2096582092480208 3.212008677940206 0 0 0
118 4 1 2.6138887600594485 0.04492560766590259 2.2959417682172143 0 0 0
119 4 1 3.553756033329064 0.1638291628196331 2.1122669109053267 0 0 0
120 4 1 3.749380567187851 0.7940556488166841 1.408157105476983 0 0 0
121 4 1 3.8661570730433032 1.7049201554789377 1.7046602221269127 0 0 0
122 4 1 4.685945881736381 1.8690574007834204 2.186562986017555 0 0 0
123 4 1 4.9498479765751116 2.796382146203097 2.227177033735831 0 0 0
124 4 1 5.9021830368286565 2.94583685301037 2.18306100915258 0 0 0
125 4 1 6.43681970456969 2.2590742378171367 2.59988920383201 0 0 0
126 4 1 6.752618639252945 2.477160046971049 3.4852900241945193 0 0 0
127 4 1 6.080350139217702 2.8422353023644806 4.073507774487542 0 0 0
128 4 1 5.887205135623815 3.7771144636767247 3.9323661387777573 0 0 0
129 4 1 4.956888518973624 4.0146438553554 4.028884431724222 0 0 0
130 4 1 4.789481678785488 4.961936961769476 4.105276318718804 0 0 0
131 4 1 4.062126938269379 5.195573115477369 4.69484754353335 0 0 0
132 4 1 3.3538936761355274 4.541571798410613 4.738584526536178 0 0 0
133 4 1 2.9574638626663194 4.32046358087921 3.887009774014208 0 0 0
134 4 1 3.4061753761555327 4.702894981871712 3.1230534917590447 0 0 0
135 4 1 4.209468440429214 4.240104311787729 2.8551541663156703 0 0 0
136 4 1 4.089186114094871 3.3011506548184784 2.667742341620244 0 0 0
137 4 1 3.1843567181488854 3.047512771619111 2.4482506824662655 0 0 0
138 4 1 3.0375961302082537 2.095859731525044 2.38466749988597 0 0 0
139 4 1 3.809467778188033 1.5551206826499673 2.5921294001632327 0 0 0
140 4 1 3.7493682859095054 0.6383304138459778 2.296987647687967 0 0 0
141 5 1 2.835564071853968 0.44859693622624874 6.217062061989537 0 1 -1
142 5 1 3.276469350149636 10.323614069560147 6.138085829922829 0 0 -1
143 5 1 3.5185523872655153 9.916712819771758 6.9789497761480135 0 0 -1
144 5 1 2.8189689097798194 9.393314740718838 7.38865992841756 0 0 -1
145 5 1 3.026818892721426 9.065556382335796 8.272174412227095 0 0 -1
146 5 1 2.526182224895022 9.48261924843218 8.983965457795343 0 0 -1
147 5 1 2.9026824827158038 9.362646195645777 9.864351181478998 0 0 -1
148 5 1 2.3337063456280127 8.89002829659334 10.4841281388757 0 0 -1
149 5 1 2.2818826095838585 9.284252002804404 0.6336416494262238 0 0 0
150 5 1 3.1123145424183303 9.652973231474789 0.9586838935370494 0 0 0
151 5 1 3.1371896573414837 9.810599272839683 1.9103982728238158 0 0 0
152 5 1 3.867316014108635 9.378936856951837 2.3706243714577298 0 0 0
153 5 1 4.233415611700853 9.88401690521002 3.106892141697827 0 0 0
154 5 1 5.109878789710756 9.59950660135317 3.393407733929841 0 0 0
155 5 1 5.437892612839363 10.043116397776586 4.185141452015493 0 0 0
156 5 1 4.8027616154417245 10.09421831418998 4.909863612766465 0 0 0
157 5 1 5.16506460156347 9.879357153212652 5.778078003197038 0 0 0
158 5 1 4.858691974131041 10.449277731704747 6.494004918022419 0 0 0
159 5 1 5.3336783034830795 10.339478053513414 7.326805625033252 0 0 0
160 5 1 4.8430103339578245 9.86710737491618 8.010425318783767 0 0 0
161 5 1 4.601160871977278 10.40354531118603 8.775257443024287 0 0 0
162 5 1 3.654084428884808 10.560792333487548 8.872953834547289 0 0 0
163 5 1 3.194963765799347 9.918835897054123 9.428224174516622 0 0 0
164 5 1 3.675572427913899 9.0943759786395 9.571423884112015 0 0 0
165 5 1 3.283460098175185 8.32136250280344 9.147250467874358 0 0 0
166 5 1 2.8691871112327245 7.696190905679433 9.75450936360103 0 0 0
167 5 1 2.778966112003582 8.015383976356349 10.66071075122408 0 0 0
168 5 1 3.3416808197841217 7.566233537374525 0.5734749458598145 0 0 1
169 5 1 3.1624703574241515 6.623524404539564 0.675495047066768 0 0 1
170 5 1 2.591007163055002 6.24683052447388 10.724995816493738 0 0 0
171 5 1 2.988554133711016 6.1989509411169585 9.84699299666923 0 0 0
172 5 1 3.952150063151084 6.2502809522202885 9.838442281689737 0 0 0
173 5 1 4.372182871486427 5.802520728212311 9.093923496353703 0 0 0
174 5 1 3.8539862564622176 5.083124738416453 8.712916044926459 0 0 0
175 5 1 2.8983199097032895 5.211027437002736 8.752510657777037 0 0 0
176 6 1 10.721790743385853 6.637005426013622 9.192702287243973 -1 0 -1
177 6 1 10.236995937225252 7.352954054702474 9.621207312883415 -1 0 -1
178 6 1 9.996030959761493 7.182062840652399 10.539878675556913 -1 0 -1
179 6 1 10.658929419124808 6.696568703791052 0.316165275648288 -1 0 0
180 6 1 0.7648264928730093 6.556706082455438 10.584045172057262 0 0 -1
181 6 1 1.5363858750627912 6.931422345064981 0.29644611109052477 0 0 0
182 6 1 1.948093080151958 6.350691770910973 0.9479629393616165 0 0 0
183 6 1 2.912806205161731 6.373359214452712 0.9542695578820215 0 0 0
184 6 1 3.3079063349150424 6.880845637679719 0.23484032737412974 0 0 0
185 6 1 3.49092085625216 7.804224599664155 0.4472125890852361 0 0 0
186 6 1 2.8084153434048975 8.238895878256828 0.9730187363483758 0 0 0
187 6 1 2.370045754090391 8.97688637101261 0.5320798111372866 0 0 0
188 6 1 1.7030018757544152 8.719379849835306 10.61379342081684 0 0 -1
189 6 1 0.8075485528910402 8.645676145336978 0.23610455430121924 0 0 0
190 6 1 0.6731292462041019 7.906655616841655 0.8419140197705985 0 0 0
191 6 1 1.2298720970094106 7.926131292276086 1.629875374243996 0 0 0
192 6 1 1.377609359419349 8.806548137739359 1.9962970978359742 0 0 0
193 6 1 0.5748618137417214 9.322823617929714 2.138708496476543 0 0 0
194 6 1 0.6425538955483283 9.987882738620055 2.8346532845504804 0 0 0
195 6 1 1.2045003885605645 0.011921258443400973 2.617341090715371 0 1 0
196 6 1 1.5121287611409837 0.517263526912128 3.37971827825603 0 1 0
197 6 1 1.6745084947266466 1.4520685801572828 3.2036576791772635 0 1 0
198 6 1 2.2934552362697627 1.6241270365244418 2.4835703103630973 0 1 0
199 6 1 3.224365994147661 1.575211034964962 2.7330445287878327 0 1 0
200 6 1 3.385115763106974 1.2382982910968252 3.6229177303164377 0 1 0
201 6 1 2.717557796183364 1.4870588767012158 4.273847474487479 0 1 0
202 6 1 2.9278079170698916 2.279444155248246 4.782910787847559 0 1 0
203 6 1 2.1789420781141935 2.8677330861279664 4.938927098051256 0 1 0
204 6 1 2.014226198874761 3.0715014336143582 5.867674716992507 0 1 0
205 6 1 2.3118635976367035 3.946090783755235 6.146476523798675 0 1 0
206 6 1 2.932058038095459 3.943130879888546 6.885783696084424 0 1 0
207 6 1 3.662068189767872 3.3184501744590396 6.795871546075016 0 1 0
208 6 1 4.2575433918075944 3.2838297953861257 7.554446336790214 0 1 0
209 6 1 5.195595666670032 3.3238916353808214 7.331560763902132 0 1 0
210 6 1 5.6398279472681985 2.467606031409158 7.305916167874162 0 1 0
211 7 1 1.9935100825297127 10.199949620522702 6.164084943030783 0 -1 0
212 7 1 2.209115691870349 9.939852458422873 5.260155361985629 0 -1 0
213 7 1 2.6759762251706682 10.611957496170596 4.748744508873697 0 -1 0
214 7 1 3.633107690936496 10.495198497821026 4.71012206015067 0 -1 0
215 7 1 4.034941997675905 10.192664060882931 5.5336675078302795 0 -1 0
216 7 1 3.7459635595706877 10.669668364277712 6.321184718342613 0 -1 0
217 7 1 4.462452966317159 0.27564147496854474 6.873587899912618 0 0 0
218 7 1 5.1393852190445655 0.7713758394039054 6.3968960024198385 0 0 0
219 7 1 5.754587957252829 0.2271583918442346 5.890360751254935 0 0 0
220 7 1 6.136324799849322 0.6635168717891897 5.118937871127189 0 0 0
221 7 1 7.051439475935433 0.421241017760563 4.931607841055897 0 0 0
222 7 1 7.198824839443393 10.206227974690153 4.801603952534775 0 -1 0
223 7 1 7.814112579468759 9.989241567680644 4.0905744903128625 0 -1 0
224 7 1 7.802123927355894 10.603910280861196 3.3467575469339956 0 -1 0
225 7 1 7.11588589824448 0.5508687835536747 3.3952398992108757 0 0 0
226 7 1 7.413478178551653 1.4419755351766135 3.1748026248818944 0 0 0
227 7 1 8.371825594473087 1.547233952493917 3.1333792500729043 0 0 0
228 7 1 8.80812119323362 1.6003278690033103 3.9924788872116257 0 0 0
229 7 1 9.595126115054338 2.1584840964993433 4.010082260108839 0 0 0
230 7 1 10.283772596298578 1.863669788531423 4.618420609785499 0 0 0
231 7 1 10.549863598090763 0.9425779760961586 4.5088284028091365 0 0 0
232 7 1 9.856395116705672 0.29846823763604746 4.697107743540669 0 0 0
233 7 1 9.780083119507063 0.04968162914434515 5.626358356948459 0 0 0
234 7 1 9.819348859169297 0.7890739602431083 6.245213899382325 0 0 0
235 7 1 8.98585148046963 1.2614337302630965 6.360900404072572 0 0 0
236 7 1 8.880923213003532 1.687456299051405 7.220388524740667 0 0 0
237 7 1 9.656655439887992 2.173470054920841 7.525765572467834 0 0 0
238 7 1 10.484779629611342 1.680377008537091 7.477863860566939 0 0 0
239 7 1 10.431535300777549 0.8515704359107588 6.986468188406071 0 0 0
240 7 1 9.88023752023951 0.8877876315626541 6.195276636433387 0 0 0
241 7 1 9.823914277925132 0.057944042669547 5.705978863754822 0 0 0
242 7 1 10.103439937163595 10.008564908995709 6.201991090783686 0 -1 0
243 7 1 10.310954328056432 9.238765249368372 5.658326431632469 0 -1 0
244 7 1 0.3904693888436679 9.319549156890812 5.138934310123042 1 -1 0
245 7 1 1.0419480786263673 9.93191035889207 5.501996667084749 1 -1 0
246 8 1 9.337761711914034 8.515876788611534 8.503020861083025 0 0 0
247 8 1 9.270557883609797 7.849226788797334 9.197489307600922 0 0 0
248 8 1 10.045645061760085 7.783854442514607 9.768620923437862 0 0 0
249 8 1 10.120796866419527 6.95140957801585 10.250920367586488 0 0 0
250 8 1 9.582095462360043 6.232431269892169 9.898647760488023 0 0 0
251 8 1 9.672717566504925 5.394462552919617 10.368563778107903 0 0 0
252 8 1 9.909121794396865 5.479354094779718 0.57053662692757 0 0 1
253 8 1 9.161778894911123 5.44353943992245 1.1799797342687697 0 0 1
254 8 1 8.64845134805428 6.25880853447253 1.2352620380325092 0 0 1
255 8 1 8.84986901968451 6.908137911384739 0.5504063730680873 0 0 1
256 8 1 8.56942306983827 6.656004286878689 10.391910447451277 0 0 0
257 8 1 7.633257406130461 6.435527348774959 10.313114699730235 0 0 0
258 8 1 7.455827484928599 5.534744142966124 10.01590561643186 0 0 0
259 8 1 8.219217024498434 5.076132422438452 9.644238156637487 0 0 0
260 8 1 8.183035247493565 4.943701849490999 8.689053346058099 0 0 0
261 8 1 8.28564464893676 5.7489099215392905 8.167194867690888 0 0 0
262 8 1 9.145244354349243 5.843921123497843 7.739075470843277 0 0 0
263 8 1 9.120135240345288 5.811743798623789 6.774938990796034 0 0 0
264 8 1 9.306445815809111 6.6525030318344545 6.339465362155501 0 0 0
265 8 1 8.539823035316672 7.07203466696548 5.930188292733904 0 0 0
266 8 1 8.557782126969247 8.036841970568963 5.937212389856742 0 0 0
267 8 1 8.935174582078538 8.437868328005816 5.144761889530375 0 0 0
268 8 1 9.438668757489634 7.831528389179827 4.587922151444454 0 0 0
269 8 1 9.968256622993435 8.25928901172103 3.9039758505448248 0 0 0
270 8 1 9.455840286218942 8.707741233748008 3.220203152665132 0 0 0
271 8 1 9.638876391013424 9.651317609825782 3.1342589448928857 0 0 0
272 8 1 9.01848154872952 10.225402386987268 3.599835907702448 0 0 0
273 8 1 8.103019343684958 9.92035822126653 3.589736002025459 0 0 0
274 8 1 7.448319877161625 10.617137675627973 3.458999624097073 0 0 0
275 8 1 6.903412818627395 10.513989828486377 2.6692770024192933 0 0 0
276 8 1 7.082540347771958 0.4251928490830643 1.9704915965879426 0 1 0
277 8 1 7.995945319021811 0.7341976255425671 1.9326444484619962 0 1 0
278 8 1 8.625663769089423 0.1884272541890386 2.4192802212911992 0 1 0
279 8 1 8.224770472459227 10.301188618977738 3.0436348446752346 0 0 0
280 8 1 7.8326096557113605 9.517690705559769 2.6392020152989177 0 0 0
281 9 1 0.6189008853170331 8.11210463069823 2.5701281422645477 0 0 0
282 9 1 0.045967957389133174 8.171504156063362 1.79589009328842 0 0 0
283 9 1 10.622614649420301 7.332945739031777 1.3435625411702865 -1 0 0
284 9 1 0.3769445976030695 6.583432950397258 1.711135274109908 0 0 0
285 9 1 1.3259887790774134 6.727251066014986 1.8104151372738848 0 0 0
286 9 1 1.7268008724623325 6.265623576617151 2.557057439068158 0 0 0
287 9 1 1.140603824229294 5.6461603235590525 3.0085696745098467 0 0 0
288 9 1 0.6763039773516126 6.014175655498358 3.77028836776016 0 0 0
289 9 1 0.16951470138081565 6.814084311593771 3.584450342413826 0 0 0
290 9 1 0.47309813234502957 7.600683273861424 4.053837360772288 0 0 0
291 9 1 0.9046947561560748 8.259948165441456 3.4967743867335566 0 0 0
292 9 1 1.8667858489856681 8.279820852025635 3.568960295510034 0 0 0
293 9 1 2.304638831834964 8.873292951550768 2.9466254720466476 0 0 0
294 9 1 3.262712930585708 8.927354266585429 3.0485881883682184 0 0 0
295 9 1 3.557129184364165 9.348486166649263 3.8654064008608655 0 0 0
296 9 1 3.373987017893034 8.84338527397224 4.6670029546690355 0 0 0
297 9 1 3.0079209719853717 9.361607044412484 5.394097753629467 0 0 0
298 9 1 3.6247699496871286 9.533342680493194 6.116059809424819 0 0 0
299 9 1 4.529557146115008 9.718857209147217 5.836471739510429 0 0 0
300 9 1 4.642450434355949 9.824920289457857 4.883985136735793 0 0 0
301 9 1 3.836914765518129 9.701166468660848 4.367243152697195 0 0 0
302 9 1 3.153924816668101 10.365134663832714 4.521826352204929 0 0 0
303 9 1 2.8615121428572854 0.10343392136355511 3.7302218649705856 0 1 0
304 9 1 2.7934354559969976 1.0607291536736199 3.8311000236697987 0 1 0
305 9 1 2.1897445262612316 1.349992958469862 4.526160245945227 0 1 0
306 9 1 2.115997227957297 2.307378226383463 4.62207575446639 0 1 0
307 9 1 1.3540373727552573 2.698616643556278 4.177582019990194 0 1 0
308 9 1 0.5041749899079359 2.311258320305903 4.420300910128004 0 1 0
309 9 1 10.468252795403366 2.7331703543226897 4.011716031281615 -1 1 0
310 9 1 10.464776059242736 3.69678172055316 4.06334981070085 -1 1 0
311 9 1 9.589650396115552 4.0994533949007295 4.006467507527301 -1 1 0
312 9 1 9.099805408969738 4.116173569422628 4.837729995753538 -1 1 0
313 9 1 8.704928913891823 3.272254155097091 5.088922304074117 -1 1 0
314 9 1 7.949500681380973 3.0056705970024638 4.5508829076735005 -1 1 0
315 9 1 7.531393511563419 3.7240401953836617 4.0606212278852585 -1 1 0
316 10 1 8.99331840306612 10.246642769220356 1.038628648995024 0 0 1
317 10 1 8.906941923676005 0.4197812877248186 1.3680723764406864 0 1 1
318 10 1 8.081534607581965 0.6006251895940107 1.834144522889238 0 1 1
319 10 1 7.286069781582611 0.5000599771596708 1.297164682815282 0 1 1
320 10 1 6.570457277901898 1.107653245437401 1.5206689667102697 0 1 1
321 10 1 5.877603070954709 1.176207034414512 0.8524785552761749 0 1 1
322 10 1 5.28152549911427 0.4183983385695065 0.811950677827463 0 1 1
323 10 1 4.469242284133841 0.5717848859664887 0.3140615880306594 0 1 1
324 10 1 4.462347373625679 0.1895553472259639 10.1577781706692 0 1 0
325 10 1 4.735088548795165 0.7941127025154824 9.456816220537448 0 1 0
326 10 1 5.687863051979392 0.8352709356209633 9.309331489362693 0 1 0
327 10 1 5.979143479434043 1.578236886563861 8.766761394055782 0 1 0
328 10 1 6.930031512227707 1.7415851311014006 8.785584255057774 0 1 0
329 10 1 7.463237402306085 1.063587119986689 8.352877453966984 0 1 0
330 10 1 7.09212369730372 0.7251526615192923 7.528886109788358 0 1 0
331 10 1 7.324049680921835 10.539710603305693 7.329298383776604 0 0 0
332 10 1 7.676970281769627 10.042014890824797 8.07694203370307 0 0 0
333 10 1 7.7310139063145655 10.539756677698048 8.901901063138027 0 0 0
334 10 1 7.168313731748739 0.593181111056662 8.936702596861156 0 1 0
335 10 1 6.38450221021818 0.5009279517780847 9.491998782080428 0 1 0
336 10 1 6.1069074138301715 10.319702106942666 9.647773213287614 0 0 0
337 10 1 5.178396965806286 10.218037657173506 9.890173063872579 0 0 0
338 10 1 4.810273745354971 9.343488621996837 9.71446227980936 0 0 0
339 10 1 4.121390572079775 9.06587324277353 10.330574830239065 0 0 0
340 10 1 3.2849450738954555 8.822297888667453 9.915538716823278 0 0 0
341 10 1 3.3640062446254735 8.185617542769124 9.194697216610102 0 0 0
342 10 1 2.6024749042390702 7.602666835868337 9.087629523382123 0 0 0
343 10 1 2.680163801400182 6.752689818407802 9.537883346294027 0 0 0
344 10 1 3.1854762263317973 6.0868209034525425 9.055697758261747 0 0 0
345 10 1 3.9010957221564677 6.439932212806037 8.513087271446109 0 0 0
346 10 1 4.030648338489922 5.984469650843446 7.672257339621825 0 0 0
347 10 1 4.598189989051631 6.450077424371982 7.045894125418204 0 0 0
348 10 1 4.660038055144927 6.037612478437252 6.175680079854943 0 0 0
349 10 1 4.417872853361722 6.612943750982685 5.43976232502323 0 0 0
350 10 1 4.6123583662082215 7.54779786717281 5.579219009105469 0 0 0
351 11 1 2.016484253697224 8.009380510888505 3.6152878107609308 0 0 1
352 11 1 1.6851831507429265 8.1033103999935 2.713821363734759 0 0 1
353 11 1 1.7007163611106415 7.29111417795403 2.192936523985624 0 0 1
354 11 1 2.5285693352149536 6.797670744324955 2.2419062194614288 0 0 1
355 11 1 2.4708981057606576 5.884054424548257 1.936612509190624 0 0 1
356 11 1 2.3552513825114456 5.784955068866534 0.9837063474384884 0 0 1
357 11 1 1.5163526892686898 6.119173099380483 0.6434530733102708 0 0 1
358 11 1 1.561536292712867 7.0036117313576955 0.2601102133975317 0 0 1
359 11 1 2.1804453177602516 7.0922298900893415 10.254806129368047 0 0 0
360 11 1 2.1208331868704655 6.393102831215635 9.592316318577435 0 0 0
361 11 1 1.5991725530554926 6.62084101503068 8.81306635690892 0 0 0
362 11 1 2.111051142413552 6.975900695303745 8.076087433735948 0 0 0
363 11 1 2.995464910429352 6.601188873989173 7.9831985866593955 0 0 0
364 11 1 3.1509222398865693 5.803372425073944 8.503339848777989 0 0 0
365 11 1 2.799089135806588 4.993939340507337 8.113139197212114 0 0 0
366 11 1 3.4211512009703267 4.514245600277527 7.5526414695908874 0 0 0
367 11 1 3.3577541604892596 4.7216358862165855 6.612324988529135 0 0 0
368 11 1 4.174789549275145 4.591116089371173 6.115693579833584 0 0 0
369 11 1 4.198529691688082 3.785525825349456 5.584952840723016 0 0 0
370 11 1 4.123309724136991 3.928327916750189 4.633546240381612 0 0 0
371 11 1 4.602054017180639 4.698383771786633 4.303329823463512 0 0 0
372 11 1 5.499445694368754 4.5143868123429485 3.9999187217731187 0 0 0
373 11 1 5.831502266415718 3.6389939132903804 4.233693624721999 0 0 0
374 11 1 5.911751623662922 3.027792702599262 3.491252973416376 0 0 0
375 11 1 5.178287007488249 2.407374164775545 3.3999540427303305 0 0 0
376 11 1 4.448385174245857 2.7249647233788235 2.854422603750459 0 0 0
377 11 1 3.6658003762381175 2.9976847670602416 3.34880081089716 0 0 0
378 11 1 3.846204357999572 3.3272001562609965 4.23767594928527 0 0 0
379 11 1 4.510543301134728 4.025801548734753 4.280511250939254 0 0 0
380 11 1 4.3595481752939165 4.6826161187736695 4.971177662861033 0 0 0
381 11 1 3.734982970507253 4.411053995177463 5.654842286779591 0 0 0
382 11 1 2.9010402481307156 4.058712695772617 5.320746275835271 0 0 0
383 11 1 2.9934093079775628 3.3151037968891703 4.712684796801819 0 0 0
384 11 1 3.9017287418806084 3.021409287993472 4.571531187430477 0 0 0
385 11 1 4.285011947692334 2.530889701429863 5.308897798649173 0 0 0
386 12 1 2.0546157485219254 4.35201626955475 2.766747154120371 1 0 0
387 12 1 2.331771007885708 4.036798090209702 1.8978124836086074 1 0 0
388 12 1 3.179766152159118 4.384316905917247 1.5955544679697444 1 0 0
389 12 1 3.479713813114344 5.174413267403964 2.061391499830607 1 0 0
390 12 1 2.895446781883079 5.469358880521424 2.770520628776082 1 0 0
391 12 1 1.9678843918860096 5.55433073728906 2.518265210161572 1 0 0
392 12 1 1.6658418143980622 4.904924254128696 1.8715299466930295 1 0 0
393 12 1 1.221499884639094 4.136640576514546 2.2503774624163766 1 0 0
394 12 1 0.419091608641061 4.340095059840982 2.7463333393089058 1 0 0
395 12 1 10.347366335793918 4.390980651872864 2.2113077339359846 0 0 0
396 12 1 9.79112677221746 5.158522834374327 2.392143421766573 0 0 0
397 12 1 8.994094040486496 4.966645824399322 2.901208287567118 0 0 0
398 12 1 8.693365335859719 5.689568317771154 3.46527416562619 0 0 0
399 12 1 9.397851682106563 6.154802885847621 3.9326934470197488 0 0 0
400 12 1 9.545230022568772 5.855981635373927 4.838348174290545 0 0 0
401 12 1 8.825096322544308 6.054000912268133 5.449429854647082 0 0 0
402 12 1 7.985704975309069 5.630092718053237 5.232752654498855 0 0 0
403 12 1 7.733625158195433 5.688833837041645 4.303112806630906 0 0 0
404 12 1 7.798209446791425 4.858520868781832 3.815635376993259 0 0 0
405 12 1 8.650631622542996 4.707759125721456 3.3891704533285387 0 0 0
406 12 1 9.392599771755881 4.6066970949745425 3.997853237293153 0 0 0
407 12 1 9.47609891451818 3.7279583244643177 4.387816141118809 0 0 0
408 12 1 9.950344660838098 3.7041492289142055 5.227904885875307 0 0 0
409 12 1 10.276854487138124 2.8320112948935448 5.480870807239629 0 0 0
410 12 1 0.24830275636863242 2.4855541059041437 4.915631617782399 1 0 0
411 12 1 10.708383640339282 1.7603678413801203 4.338915480404823 0 0 0
412 12 1 10.123171492355963 1.113985782469621 4.752366778348574 0 0 0
413 12 1 10.484039198964833 0.2205562418149123 4.805122386698477 0 0 0
414 12 1 0.621014015956824 0.16102542225842864 5.225178153538627 1 0 0
415 12 1 0.9557853578553228 0.9950842444111068 5.576602441021384 1 0 0
416 12 1 0.43185539274609397 1.7702656224501752 5.340347868997707 1 0 0
417 12 1 10.282737924095356 1.7980889453827036 5.737865411493571 0 0 0
418 12 1 10.045801696428622 2.64694165151524 6.130975201896363 0 0 0
419 12 1 0.04007257332135694 3.0967663768635543 6.58336644438506 1 0 0
420 12 1 0.10995769638555153 4.039941663708021 6.391633693243896 1 0 0
421 13 1 8.864140555971295 6.443243237946452 10.182042095308637 0 0 0
422 13 1 9.715347338017837 6.853693997026488 9.98658829368638 0 0 0
423 13 1 10.011998284166516 7.496407279164559 10.642441061548498 0 0 0
424 13 1 9.301166860270282 7.967979146566226 0.36385847950024264 0 0 1
425 13 1 9.472092986215074 8.158461897378672 1.2943022344432418 0 0 1
426 13 1 9.276034693413292 7.430365125004046 1.896515847608292 0 0 1
427 13 1 9.866562359481923 6.671437963583579 1.815697289926236 0 0 1
428 13 1 0.02004544834065136 6.882077450529231 1.4889977855263599 1 0 1
429 13 1 0.4422016400911737 6.174778891129051 0.9862673432045064 1 0 1
430 13 1 10.562528799684973 5.615769665492961 0.4889527655637238 0 0 1
431 13 1 10.033300820266195 6.0834443198677866 10.561126743357164 0 0 0
432 13 1 10.286364525582433 5.912568942247091 9.645711336902476 0 0 0
433 13 1 9.875196462783501 5.132527580184192 9.253663766312846 0 0 0
434 13 1 9.034288472037616 5.300629224321781 8.811124967631919 0 0 0
435 13 1 8.34459078183294 5.6612704952419275 9.381633486267212 0 0 0
436 13 1 8.328334747686464 6.624752518331126 9.433239033815658 0 0 0
437 13 1 8.460135015760763 7.0749797728302175 8.589942461640867 0 0 0
438 13 1 8.497812933816295 6.490091981202426 7.823318925806123 0 0 0
439 13 1 8.94035364982376 5.647315006538251 7.981779285680454 0 0 0
440 13 1 9.68885924811671 5.470251339465927 7.399016188764554 0 0 0
441 13 1 10.389727965547095 6.132766014139594 7.431915227801204 0 0 0
442 13 1 0.5081918382664696 5.8052206192180265 7.755103085451553 1 0 0
443 13 1 0.5634869661919737 5.709345380019748 8.71373512504567 1 0 0
444 13 1 1.0494104669301905 4.931079749003139 9.012743417587258 1 0 0
445 13 1 0.528807997837653 4.307427046696629 9.533565245164157 1 0 0
446 13 1 0.6090422636897515 3.386594105671076 9.256339421501561 1 0 0
447 13 1 1.3097601087777893 2.8927550729847744 9.699444952239597 1 0 0
448 13 1 1.1342826000407342 2.6894985112374563 10.626331900056911 1 0 0
449 13 1 0.7300318989062138 1.8267153002880683 0.04957719543908112 1 0 1
450 13 1 1.3130807484923857 1.0749853036473587 10.617534478020968 1 0 0
451 13 1 2.2460561910290835 1.3026599821384135 10.522950840971786 1 0 0
452 13 1 2.793226636218005 0.6060957803498175 10.140030723064182 1 0 0
453 13 1 3.308317530159359 0.10112682970878328 0.05129259351872939 1 0 1
454 13 1 3.1807599921372613 0.3683209720545326 0.9697485613200509 1 0 1
455 13 1 2.6558140270765307 10.484371061215231 1.4979656993604014 1 -1 1
456 14 1 9.605970500635403 9.444807255375526 6.079713205429659 -1 0 0
457 14 1 10.406644813122671 9.0705970639601 5.692269818644096 -1 0 0
458 14 1 10.485724266803667 9.190598462477386 4.7380313241578325 -1 0 0
459 14 1 0.07662882713942665 8.41580955041126 4.260433653662924 0 0 0
460 14 1 0.2849761092716534 8.573702964466762 3.3315170374771585 0 0 0
461 14 1 1.2097405812195188 8.429354020510921 3.096572248639826 0 0 0
462 14 1 1.8380128964880758 8.980676869639531 3.5787983511019377 0 0 0
463 14 1 1.8006569474355452 9.919551314510585 3.3589249560800405 0 0 0
464 14 1 2.6518188919550028 10.313732289666135 3.1322761020629173 0 0 0
465 14 1 2.6031359582277886 0.49800035031826084 2.8266580190326196 0 1 0
466 14 1 1.7120115263366014 0.8676102328232496 2.804057540248833 0 1 0
467 14 1 1.285530782797574 0.8365660018688246 1.9389705902173078 0 1 0
468 14 1 0.9984179151229888 10.687206015380454 1.6634090036914162 0 0 0
469 14 1 0.615305385457587 10.15009096487957 2.3676513001624584 0 0 0
470 14 1 1.254873110887786 9.800511325234496 3.0000848540901885 0 0 0
471 14 1 1.2471970589050247 10.234990849711114 3.861707521524448 0 0 0
472 14 1 0.9294429588362014 9.683802285048193 4.587275228960688 0 0 0
473 14 1 0.6054300421748948 8.814930237781748 4.320250894272533 0 0 0
474 14 1 0.6242144411616568 8.653559733621648 3.369024471835782 0 0 0
475 14 1 1.3267049735095728 8.060643206895335 3.0754566869949627 0 0 0
476 14 1 1.816202494695636 7.632882551319394 3.7886453004023415 0 0 0
477 14 1 2.7759378112528257 7.664395995786727 3.693041822585492 0 0 0
478 14 1 3.251449827130404 7.922787673364732 4.492008069503635 0 0 0
479 14 1 4.034252071255759 7.391984960341456 4.683565179628616 0 0 0
480 14 1 4.872770233608636 7.823546838641425 4.478951796384614 0 0 0
481 14 1 4.806069447230069 8.770627108666977 4.306281685407628 0 0 0
482 14 1 4.743934783461073 9.320232454434073 5.0970397062095305 0 0 0
483 14 1 4.759983932554073 10.270315449422995 4.928784758447904 0 0 0
484 14 1 3.890406533790175 10.67411911683249 4.81922771510677 0 0 0
485 14 1 3.5086059742526476 10.574176824432652 3.9386228826610856 0 0 0
486 14 1 4.086936975106747 10.145851329728961 3.2957422374104035 0 0 0
487 14 1 3.9994573304605243 9.185776571601611 3.252978110162479 0 0 0
488 14 1 3.9157116170514517 8.828903963231102 2.360311544819949 0 0 0
489 14 1 4.47620352201927 8.06470487312105 2.1784501274150734 0 0 0
490 14 1 4.055011333804055 7.210680563714266 2.3348618262382055 0 0 0
491 15 1 10.409484565549633 5.866911948359046 2.411374778060182 -1 0 0
492 15 1 10.048057927721164 6.189007941387098 1.57659938506918 -1 0 0
493 15 1 10.671451063185984 6.687146496373513 1.03395403247562 -1 0 0
494 15 1 0.5780921334301858 6.144929282904759 0.5520665908941798 0 0 0
495 15 1 0.6473822919825452 6.3468297801628015 10.340734329927805 0 0 -1
496 15 1 0.5603048102748183 5.582624449054268 9.7579541620388 0 0 -1
497 15 1 0.8780993121152587 4.752333136638178 10.133251365767197 0 0 -1
498 15 1 1.289819814776422 4.154889247312411 9.497034400577066 0 0 -1
499 15 1 0.9043878451711063 3.270685165924195 9.467873823377925 0 0 -1
500 15 1 1.174472372926349 2.690187899494686 10.189886476684704 0 0 -1
501 15 1 1.8698108022171578 3.048199682966378 0.025417354280786952 0 0 0
502 15 1 2.6254723491801766 2.4619257540066304 0.1538054637908104 0 0 0
503 15 1 3.05020828180011 2.1687912551533484 10.06815645144626 0 0 -1
504 15 1 3.6591719235746325 2.8085189591514763 9.679393351687558 0 0 -1
505 15 1 4.5241708716416085 2.8505299110788807 10.10511262510747 0 0 -1
506 15 1 4.569199962778448 2.4203715551437406 0.23799751267254265 0 0 0
507 15 1 5.385356291774318 2.5831440427655634 0.7264839136228574 0 0 0
508 15 1 6.182631307945506 2.243142149663851 0.3022478221873417 0 0 0
509 15 1 6.968851741166606 2.7883766669209678 0.42795284029332237 0 0 0
510 15 1 7.802405692583662 2.3434762667427522 0.23179870702491812 0 0 0
511 15 1 8.534582368831728 2.587458109379109 0.8111217388664844 0 0 0
512 15 1 9.286871974483802 1.9836520447536472 0.7845965517915197 0 0 0
513 15 1 9.306728163053844 1.3342496304327747 1.4981140610719113 0 0 0
514 15 1 10.144321523287832 0.8640745601278561 1.5908382011633684 0 0 0
515 15 1 0.168270200969328 1.4248128323373526 1.8115562993577612 1 0 0
516 15 1 0.9284181289415763 1.3259740567466998 1.225355801200994 1 0 0
517 15 1 1.762697095509214 1.145536161952252 1.6755177410237465 1 0 0
518 15 1 2.425169867053402 1.841870004622748 1.5890654043618078 1 0 0
519 15 1 3.180338082787557 1.6118976738261792 1.034035051126157 1 0 0
520 15 1 3.0016868471556357 1.626034240490998 0.0858215237547526 1 0 0
521 15 1 2.325454103513618 1.0022324826948545 10.524370317946655 1 0 -1
522 15 1 2.51761056166011 0.07808071048502763 10.724980381288542 1 0 -1
523 15 1 1.8192066597127692 10.34699579987016 0.4759214692839109 1 -1 0
524 15 1 1.7599767060435738 9.401723697474216 0.2910499868419141 1 -1 0
525 15 1 0.8735287187632643 9.030006581484479 0.37626355106125153 1 -1 0
526 16 1 6.836295256888469 6.11464791497165 7.89138172573359 0 0 0
527 16 1 6.835626227720908 6.101447091794053 6.926472252950051 0 0 0
528 16 1 6.398849366754867 5.335147105822563 6.535019439414694 0 0 0
529 16 1 6.997456347287917 4.637848112109033 6.240623793687379 0 0 0
530 16 1 6.606745980311235 4.005747373006463 5.624978551065517 0 0 0
531 16 1 6.7360706971332895 3.079634148973154 5.863336294572045 0 0 0
532 16 1 6.165499231757863 2.763951420822024 6.574685447974506 0 0 0
533 16 1 6.386345515397586 3.1064197489877534 7.449423902145747 0 0 0
534 16 1 7.053849606637478 3.803311290216471 7.451762265220686 0 0 0
535 16 1 7.82460009162841 3.6238526023145763 6.899527469845772 0 0 0
536 16 1 7.71680115840985 2.8871205898809684 6.2856623935851434 0 0 0
537 16 1 7.085908679730112 2.214935953835995 6.570912275987264 0 0 0
538 16 1 6.97170611123196 1.482519578209522 5.953053856879289 0 0 0
539 16 1 6.1024834408692765 1.064331731499915 5.981265099176438 0 0 0
540 16 1 5.36351961563602 1.6605750795435918 5.809069469411051 0 0 0
541 16 1 4.914263483019181 1.5118515261774972 4.968072898680633 0 0 0
542 16 1 5.355774463120065 1.8989281583253872 4.202263042844732 0 0 0
543 16 1 6.243819132137122 1.559851360150506 4.0360445397536004 0 0 0
544 16 1 6.418551822298542 0.6884842054995346 4.4120934312350455 0 0 0
545 16 1 7.1952031556016784 0.24329497628193586 4.051754345557262 0 0 0
546 16 1 7.251652217644924 0.2496762270483952 3.0884279299363193 0 0 0
547 16 1 7.318904518161454 1.1283935275851364 2.695289234546694 0 0 0
548 16 1 8.057200906734234 1.2400945122061406 2.0840067035881464 0 0 0
549 16 1 8.878740316210195 0.8184915081790072 2.364272480437884 0 0 0
550 16 1 9.04985875971224 0.8620083288355245 3.3129820063800377 0 0 0
551 16 1 9.75905814098848 1.465324901945647 3.5664979826183387 0 0 0
552 16 1 9.688901560976104 1.8141928157758693 4.463489751243177 0 0 0
553 16 1 9.18742293321635 1.2589177052292095 5.072926981405225 0 0 0
554 16 1 8.236382226835506 1.2404892848785005 4.910424771789479 0 0 0
555 16 1 7.975391020991308 0.7841364709445058 4.101196312276027 0 0 0
556 16 1 7.120378366722253 1.054615217882068 3.744798208332038 0 0 0
557 16 1 6.4024812300989185 1.0696944808346407 4.389485199868879 0 0 0
558 16 1 6.076946296242327 0.19923056492375313 4.649378597122574 0 0 0
559 16 1 6.545793183694018 10.187661862341102 4.247091284682734 0 -1 0
560 16 1 6.02591181507749 9.378595690226554 4.167339847671742 0 -1 0
561 17 1 6.1247687280020084 9.790310620040817 4.325639338632299 0 -1 0
562 17 1 5.798692986625499 10.629393881507152 3.9780204507496397 0 -1 0
563 17 1 6.161587076474953 0.6823261346541116 4.410364305929221 0 0 0
564 17 1 5.5115486471494775 1.3643321439242087 4.619033526753821 0 0 0
565 17 1 4.649145043795127 1.028005680254985 4.891741309475892 0 0 0
566 17 1 4.053293373737617 0.8118629414982266 4.1640957200764905 0 0 0
567 17 1 4.485797983381818 0.43312965936645575 3.389030649490664 0 0 0
568 17 1 5.448031905262294 0.38866594924702724 3.4469431530191006 0 0 0
569 17 1 5.787148482663719 0.1232010721498682 4.3105132694308095 0 0 0
570 17 1 5.196426198210419 0.3118070301349647 5.049904894527279 0 0 0
571 17 1 4.759380740465824 1.1710685362309121 5.00647757586102 0 0 0
572 17 1 3.8614574079588584 1.1482256277572667 4.653721441297708 0 0 0
573 17 1 3.437681309451384 2.0117277485490135 4.5762430202894135 0 0 0
574 17 1 3.301134539269955 2.4694281931453332 5.414747810120307 0 0 0
575 17 1 2.457815043401455 2.279811843631716 5.843796604414416 0 0 0
576 17 1 2.4454333703380153 2.4407486175628286 6.79520138103097 0 0 0
577 17 1 3.317387382142992 2.508221678956815 7.203084436922397 0 0 0
578 17 1 3.9038357602373144 1.7630270248772995 7.0242319072733945 0 0 0
579 17 1 4.428624359408867 1.8484656323541149 6.218923164906853 0 0 0
580 17 1 4.128014720499897 1.3013691220181798 5.483026260868481 0 0 0
581 17 1 4.594591495039879 1.4532669638037472 4.652088140957766 0 0 0
582 17 1 4.417331307421069 2.308529466527247 4.241807898537443 0 0 0
583 17 1 4.640463995703366 2.3588529225879107 3.304308910169976 0 0 0
584 17 1 4.73258154211232 3.2557649865994343 2.9603785290255047 0 0 0
585 17 1 3.8987326915686698 3.6931202907960596 2.7490933370737025 0 0 0
586 17 1 3.150591317984232 3.4165742534842494 3.2922616115322954 0 0 0
587 17 1 3.048589341948425 2.460981289334974 3.3797983681159707 0 0 0
588 17 1 3.624845201756141 1.940801137274791 2.8065909070341086 0 0 0
589 17 1 4.531263617415817 2.266206272252031 2.745417760282896 0 0 0
590 17 1 5.00562013834335 1.9885187164722904 1.952259193274633 0 0 0
591 17 1 5.934203507468405 2.2498766719270265 1.9267651605438245 0 0 0
592 17 1 6.152758215328314 3.012053698640667 2.476806085950493 0 0 0
593 17 1 6.504947251536478 3.7692614532589133 1.9932522635886416 0 0 0
594 17 1 6.169407590568554 3.8632262383691334 1.0933585170403504 0 0 0
595 17 1 5.399782784868058 4.439260499289427 1.0091730747329932 0 0 0
596 18 1 4.2501587685528905 6.349962514715979 8.660925931897838 0 0 0
597 18 1 3.5582093283951646 5.693337462499288 8.80678378416105 0 0 0
598 18 1 3.565687647093387 5.288992810225388 9.68295413114099 0 0 0
599 18 1 4.4449740447427795 5.0854395242683665 10.024489620782774 0 0 0
600 18 1 4.6411303614868835 4.143169186568755 10.094305880299073 0 0 0
601 18 1 4.5351358863200435 3.774818495321699 0.2501546198231299 0 0 1
602 18 1 5.169512185244773 4.101078128423856 0.9000364269008543 0 0 1
603 18 1 5.2152680910750355 5.062453450317266 0.9699570071043642 0 0 1
604 18 1 5.353733193187114 5.520527821166294 0.13197115622837075 0 0 1
605 18 1 6.037630124032423 5.134808098563289 10.300725761512052 0 0 0
606 18 1 6.0266730253193375 5.440370266105944 9.385446184686245 0 0 0
607 18 1 5.634280538313777 6.312625779534262 9.257292154568207 0 0 0
608 18 1 6.217910022628102 7.051298331007947 9.469340466842443 0 0 0
609 18 1 7.159193953784206 6.840114067177923 9.4446267528787 0 0 0
610 18 1 7.3809343554117675 6.050019439671805 8.936880089795604 0 0 0
611 18 1 8.255107117527949 6.066559187338019 8.528501076229398 0 0 0
612 18 1 8.9374962921202 5.592891123005472 9.01963097679621 0 0 0
613 18 1 8.637033446215327 5.199562695650142 9.848026912605247 0 0 0
614 18 1 7.687820002883157 5.271343519024092 10.006350481265263 0 0 0
615 18 1 7.231707815775657 5.902929702336301 9.436889713677953 0 0 0
616 18 1 7.811935119917429 6.521980504127748 8.977175258467177 0 0 0
617 18 1 8.699567457738805 6.186575723464834 8.801569262093986 0 0 0
618 18 1 9.401939786809049 6.842547826310594 8.88873985142637 0 0 0
619 18 1 9.753762144173644 6.9387944687564085 9.782150514378365 0 0 0
620 18 1 9.545027298688824 7.779085566030373 10.208255708107032 0 0 0
621 18 1 8.839441345333643 8.281447110148891 9.782807307688465 0 0 0
622 18 1 8.087459538568424 7.7513379207047555 9.491718644973822 0 0 0
623 18 1 8.121716620229847 7.478507765052723 8.566723964706457 0 0 0
624 18 1 8.82187680451221 7.895659194158823 8.050017663660663 0 0 0
625 18 1 9.7125227508913 7.759028537324354 8.395425917487165 0 0 0
626 18 1 10.233547225229746 8.565216983834858 8.494515199719514 0 0 0
627 18 1 9.922593382690803 9.312241212721501 7.9686944039472465 0 0 0
628 18 1 9.96230973650508 10.16501903637992 8.418602833203806 0 0 0
629 18 1 9.867374541042466 0.20073642662610425 7.838730204504012 0 1 0
630 18 1 9.18132392057888 0.11291598449001583 7.165791042243006 0 1 0
631 19 1 1.9335408029097876 4.796386436011697 5.920388186570664 0 0 0
632 19 1 2.691723562885004 4.5355648944479094 6.457376106297591 0 0 0
633 19 1 3.0670261422617386 5.244074924892446 6.994392410214569 0 0 0
634 19 1 2.4845783202817833 6.00257294069522 7.123467174185146 0 0 0
635 19 1 1.7005493091114805 5.821572168751191 7.65616054771159 0 0 0
636 19 1 1.7768588689640619 5.054259629019504 8.236361648577153 0 0 0
637 19 1 2.1767369815715245 4.277831791016971 7.825895684784534 0 0 0
638 19 1 1.8224342350633647 3.433876961687578 8.131566765962274 0 0 0
639 19 1 2.4895891988800263 2.76420749213985 8.325659671063034 0 0 0
640 19 1 2.533339122210805 2.0428646531317343 7.686147784683851 0 0 0
641 19 1 1.7000253339945108 1.8505912304816103 7.239108567935459 0 0 0
642 19 1 1.039544923511949 2.5514512270317993 7.300638175478946 0 0 0
643 19 1 1.4015305720327824 3.445974359339732 7.305082951171405 0 0 0
644 19 1 0.8844064272767114 4.0915976515338235 6.80811395466683 0 0 0
645 19 1 1.3260272272277152 4.937952134149797 6.667116937654122 0 0 0
646 19 1 2.109548942507898 5.078573557633429 7.212593185479668 0 0 0
647 19 1 1.946717065248004 5.556979639956103 8.034687097477981 0 0 0
648 19 1 1.0700190342806248 5.954633282467508 8.101747839312011 0 0 0
649 19 1 0.41276338647263233 5.40645290332225 8.547548563116553 0 0 0
650 19 1 10.661895070772589 5.851153653851783 9.256392619887386 -1 0 0
651 19 1 10.627922957992013 6.8123546235148424 9.177884075944597 -1 0 0
652 19 1 0.20759836029858358 7.157968388380899 8.331702017887334 0 0 0
653 19 1 1.06584775669712 7.597765662620651 8.366506200866283 0 0 0
654 19 1 1.1278176944403595 8.30786294836941 9.017003373487611 0 0 0
655 19 1 1.2988480321191904 8.0126152073119 9.919667427825605 0 0 0
656 19 1 1.999337988840154 7.353945632372435 10.0014794781735 0 0 0
657 19 1 1.9870973796978448 6.667449089322438 9.323395660442811 0 0 0
658 19 1 1.1999827027036885 6.109213757222882 9.330381306875553 0 0 0
659 19 1 0.7293796927808716 6.088035139934583 10.172586313522594 0 0 0
660 19 1 10.497219486366808 6.097487506791003 10.096168842829456 -1 0 0
661 19 1 10.12388294781238 5.343620452036156 9.623379997005607 -1 0 0
662 19 1 9.363633068875467 4.934747540328953 10.054736072247955 -1 0 0
663 19 1 9.28942315112061 5.119613202649084 0.26918851526573206 -1 0 1
664 19 1 9.864776827676224 4.585215505547818 0.8300915801591238 -1 0 1
665 19 1 0.022391544305995215 4.444667388786204 0.47790948376478326 0 0 1
666 20 1 8.040861040439353 4.635116003127466 8.851907181912566 0 0 0
667 20 1 8.05236129537397 5.154322220965446 8.038569830320485 0 0 0
668 20 1 7.680861410601139 4.705253221871082 7.269447038000454 0 0 0
669 20 1 7.158034011053736 3.920741569162562 7.4754032883233075 0 0 0
670 20 1 7.480746211584151 3.4081581204964806 8.226628982627227 0 0 0
671 20 1 6.841031139080361 3.2936967224198206 8.93999299514945 0 0 0
672 20 1 6.719969121071188 4.070138628820141 9.500088481456013 0 0 0
673 20 1 7.486025198295199 4.655037207422108 9.547803670835874 0 0 0
674 20 1 7.285479619186546 5.5911580515183275 9.426625141596745 0 0 0
675 20 1 6.657590365578862 5.779586373534016 8.71847625000237 0 0 0
676 20 1 6.131820541682508 6.57817107716496 8.849065542850871 0 0 0
677 20 1 6.055721975619761 7.14159230097443 8.069328066000981 0 0 0
678 20 1 6.149660733888446 8.085861047412802 8.244704929340026 0 0 0
679 20 1 5.994433601509911 8.341956699087525 9.162062304939544 0 0 0
680 20 1 5.101931110793817 8.659851457005391 9.34538504481082 0 0 0
681 20 1 4.409336239465048 7.995880480019768 9.242041511245134 0 0 0
682 20 1 3.752974675620152 7.985895411669052 9.949370851734495 0 0 0
683 20 1 3.4590321809498903 7.10534051473342 10.21289672012259 0 0 0
684 20 1 4.156911945349229 6.439370940569546 10.238845915291439 0 0 0
685 20 1 4.535970698643933 6.220288054072789 9.378879549440475 0 0 0
686 20 1 4.207043478597662 5.399909949100909 8.991566176581523 0 0 0
687 20 1 3.271644356002886 5.413637731308203 8.754785625343478 0 0 0
688 20 1 2.6690216386523744 5.229189515048171 9.485572677809227 0 0 0
689 20 1 2.713759792900653 5.861512154024052 10.213165680656996 0 0 0
690 20 1 3.2387969013238944 5.569303976112785 0.23850240767307263 0 0 1
691 20 1 4.040309070279564 6.0836477101708795 0.3942386149312256 0 0 1
692 20 1 4.0756340594259015 6.52332293198852 1.2525292676016466 0 0 1
693 20 1 3.430821992915627 6.203310397848817 1.8952067737244551 0 0 1
694 20 1 2.5405549412370956 6.07924773133621 1.5441255417091337 0 0 1
695 20 1 2.1172091261341226 5.252058210972523 1.804434623831309 0 0 1
696 20 1 1.3511021118223017 5.0071360662161375 1.2712196712744994 0 0 1
697 20 1 0.5022516623241575 5.098225011927349 1.7210871165914714 0 0 1
698 20 1 0.3107313418935007 5.987798060946247 2.042342089037591 0 0 1
699 20 1 10.673619563278562 6.023041066700415 2.934186198669728 -1 0 1
700 20 1 0.3330937530250999 5.394447029738078 3.55433863213538 0 0 1
701 21 1 1.122198323561765 0.5361908126917072 3.674015874543069 1 1 0
702 21 1 0.2429631451739631 0.2668378950158239 3.966623985888018 1 1 0
703 21 1 10.480380592219827 10.467841693644534 3.3269093543250574 0 0 0
704 21 1 10.248284612329524 9.581930544527886 3.6310768936674074 0 0 0
705 21 1 9.601141978121872 9.124355103182593 3.0805715563014195 0 0 0
706 21 1 8.882372851427338 9.68134131534979 2.757520009382951 0 0 0
707 21 1 8.237972037414796 9.936128330292055 3.429127162350206 0 0 0
708 21 1 8.093607062847731 0.15725887272778394 3.5077748229330337 0 1 0
709 21 1 8.882714284664706 0.6963126667510569 3.3737755706014916 0 1 0
710 21 1 8.787493537825917 1.3908713665715542 2.7106419325803737 0 1 0
711 21 1 9.146389784358757 1.1700309282374395 1.842512918538661 0 1 0
712 21 1 10.069994071586095 1.4183962743071525 1.71408093075154 0 1 0
713 21 1 10.205859177452954 2.3329152579019095 1.4376379860909902 0 1 0
714 21 1 10.483127102014503 2.929529424011376 2.1436118062903216 0 1 0
715 21 1 10.31054624331279 2.6046307878711588 3.03573384023187 0 1 0
716 21 1 9.409472662688454 2.7495371107357176 3.3492518778225424 0 1 0
717 21 1 9.234438075518744 2.41673334366126 4.237975426467101 0 1 0
718 21 1 8.991580341008408 1.483626959213309 4.277441818384523 0 1 0
719 21 1 9.182868653774324 0.9839251864175527 3.4743652842584503 0 1 0
720 21 1 8.498608342786174 1.0356681624910475 2.7958850036065686 0 1 0
721 21 1 8.296751215705147 0.1969331317220675 2.363447437699591 0 1 0
722 21 1 7.509396528810145 10.480637193314486 2.698602816772581 0 0 0
723 21 1 6.685268777388117 0.014373147564329614 2.2712776314330654 0 1 0
724 21 1 6.038968614494255 10.034463579836398 2.171848675409075 0 0 0
725 21 1 6.223274548671133 9.246131907761857 2.6970053162614445 0 0 0
726 21 1 6.578013090013913 9.422859544543403 3.5768649128355827 0 0 0
727 21 1 7.142107507445319 8.724482797451696 3.9308315883070564 0 0 0
728 21 1 7.498372587758231 8.902045452862907 4.8099059287089085 0 0 0
729 21 1 7.866148339421622 8.130672236638269 5.258179681877308 0 0 0
730 21 1 7.561292602983462 8.009565313512384 6.165715407417479 0 0 0
731 21 1 8.045678878548848 8.522029674103312 6.824483359862058 0 0 0
732 21 1 8.299173137958254 9.407990273134068 6.5380580163403375 0 0 0
733 21 1 8.181354595754708 9.574876642158605 5.594928793515154 0 0 0
734 21 1 8.969308306386914 9.424842147692313 5.058418215454311 0 0 0
735 21 1 9.774710010486597 9.827701580474853 5.405199663129145 0 0 0
736 22 1 8.182276922209832 4.985785809844502 7.055583022062589 -1 0 0
737 22 1 7.773005458650577 5.122070710795101 7.918802747792342 -1 0 0
738 22 1 8.14965092487201 5.846924797861551 8.432563144512352 -1 0 0
739 22 1 8.94846445487917 6.2349287768187605 8.054972285789752 -1 0 0
740 22 1 8.806312492351475 7.058641601315007 7.572774191320332 -1 0 0
741 22 1 9.0624987839895 7.855327608894056 8.053279122933434 -1 0 0
742 22 1 9.241789449238183 7.718910881934321 8.991612930253769 -1 0 0
743 22 1 10.090026263073225 7.300148275465798 9.182288537185185 -1 0 0
744 22 1 10.42045754518991 7.449796560764695 10.076517567415037 -1 0 0
745 22 1 10.17039960134167 8.298903201151123 10.460853277400542 -1 0 0
746 22 1 9.797399650450785 8.244074653054396 0.6193977023894099 -1 0 1
747 22 1 10.108021695802968 7.493565633209271 1.1404304806983543 -1 0 1
748 22 1 0.29878654462103427 7.249364807637582 0.9848038169920201 0 0 1
749 22 1 0.5554292528336582 6.394157611015683 1.3508368362230776 0 0 1
750 22 1 0.9871850765028398 6.438773273927152 2.2127076799988252 0 0 1
751 22 1 0.9795842425064301 5.611607493873247 2.7096624059350773 0 0 1
752 22 1 1.25688202780184 5.69299273324027 3.630372664965263 0 0 1
753 22 1 1.962559249527505 5.089333588155927 3.8927470068769416 0 0 1
754 22 1 2.761173072753218 5.145796835480793 3.3539957998673025 0 0 1
755 22 1 2.620810380307706 5.483240733672867 2.4608805048788085 0 0 1
756 22 1 2.8292851387300466 4.8569767703487585 1.756922606036607 0 0 1
757 22 1 3.032736695429019 5.262377680319934 0.9051699622066565 0 0 1
758 22 1 3.2753200816741277 4.638195306874651 0.21035008238306574 0 0 1
759 22 1 3.30235050703552 5.015245350434102 10.052234805255846 0 0 0
760 22 1 3.1767429305491284 4.376391537842623 9.339975342091934 0 0 0
761 22 1 2.403347263583031 4.538472365676756 8.78606745483389 0 0 0
762 22 1 1.8992741590636673 3.7478731814219133 8.557838983437817 0 0 0
763 22 1 1.2743493931781291 3.8649527600987863 7.831900687685518 0 0 0
764 22 1 0.4848669246966679 3.3128530686838786 7.88783245593919 0 0 0
765 22 1 0.4963207779811203 2.535554545950175 7.316080048160316 0 0 0
766 22 1 1.286768129794222 1.9880185939457187 7.397457964539568 0 0 0
767 22 1 2.117493260254289 2.4790420244236877 7.401550438577419 0 0 0
768 22 1 2.8480548866963105 2.0372493493854846 6.951746100833798 0 0 0
769 22 1 3.6461728997494696 2.571875379273651 6.86005288731124 0 0 0
770 22 1 4.1455204610260274 2.6925026225106663 7.676953175740736 0 0 0
771 23 1 8.205837949332116 10.554161515382434 10.1393493811131 0 0 -1
772 23 1 8.466581043571535 0.43753787096947505 0.107654061084272 0 1 0
773 23 1 8.620339949098579 0.026617937785536228 0.9671469391718297 0 1 0
774 23 1 8.15560720836281 9.921599865425593 1.1027538797894785 0 0 0
775 23 1 7.796944290455087 9.525774715305552 0.2990696371603452 0 0 0
776 23 1 8.4331957326567 9.015051615375619 10.513496686696291 0 0 -1
777 23 1 8.324221727771008 8.058144497476775 10.574146781285673 0 0 -1
778 23 1 7.640309795429039 7.769506290350013 0.460969219780587 0 0 0
779 23 1 7.973635518355495 7.354647550684614 1.2659606411999675 0 0 0
780 23 1 7.385519924315603 7.424851390889593 2.02781132792774 0 0 0
781 23 1 6.6841862424442695 6.762649836573402 2.0568831034844823 0 0 0
782 23 1 6.931818552463215 5.932977329452336 2.482966158723862 0 0 0
783 23 1 6.303578987729633 5.211802107552582 2.354722840686616 0 0 0
784 23 1 6.018100126031247 4.77770221531899 3.167916607931655 0 0 0
785 23 1 6.6221933057299776 4.100294103380991 3.4956583967259327 0 0 0
786 23 1 6.536689498233752 3.906596066755349 4.437144015049984 0 0 0
787 23 1 6.621128139889692 4.674752923873061 5.015097437618222 0 0 0
788 23 1 6.527430625302308 5.525574900240454 4.56951047608273 0 0 0
789 23 1 6.08514718724047 6.206295161427983 5.0912673988206905 0 0 0
790 23 1 5.488818047683093 6.774424389201014 4.588429713414374 0 0 0
791 23 1 5.929764292392669 7.404296016692171 4.005288956685636 0 0 0
792 23 1 6.201779190374767 8.22566501297132 4.4325896321205995 0 0 0
793 23 1 7.1359728302644445 8.443508755591644 4.327464245125606 0 0 0
794 23 1 7.611140026467306 7.8848347329171915 3.7003083856764096 0 0 0
795 23 1 8.172013633076379 8.364824894978321 3.0788140238887394 0 0 0
796 23 1 8.358628094413735 7.8927374454706 2.2581231668438555 0 0 0
797 23 1 8.889758371754096 8.386848434286833 1.6217428094919022 0 0 0
798 23 1 8.691222415153355 8.194887735910974 0.6971025744730674 0 0 0
799 23 1 9.38368067842863 8.450654145905284 0.07556408239038603 0 0 0
800 23 1 10.13997441492223 7.851949396511284 0.047325683115305495 0 0 0
801 23 1 10.065427933578198 7.082278562698203 0.6246251112257983 0 0 0
802 23 1 10.116528031131123 6.2323833134658 0.17043149022009096 0 0 0
803 23 1 0.28283738218264354 5.897587101258319 0.04318741692985739 1 0 0
804 23 1 0.912880690886702 6.166233947514011 0.7229662788799143 1 0 0
805 23 1 1.796992540117536 6.369717480625483 0.3940807519832248 1 0 0
806 24 1 6.621653074957607 10.674882311856148 7.322555777158293 0 -1 0
807 24 1 6.663307626514371 10.435808982296518 8.25654391489232 0 -1 0
808 24 1 7.492129029730375 10.6658153644772 8.694010651601761 0 -1 0
809 24 1 7.468531972934265 0.7627213804440522 9.191289965890482 0 0 0
810 24 1 8.315304750623191 1.2219923631325624 9.248482862523804 0 0 0
811 24 1 8.530267488311225 1.7662983896225342 8.481184373712333 0 0 0
812 24 1 7.876260906615457 1.7381563467463383 7.772165039334653 0 0 0
813 24 1 7.070075096033989 1.2535258233097348 7.987624303629932 0 0 0
814 24 1 7.216099306670927 0.37585878976623377 8.361258493900056 0 0 0
815 24 1 7.732315910900532 10.51155846037593 7.802837217860181 0 -1 0
816 24 1 8.068860205908148 0.182879470759989 6.99222346835283 0 0 0
817 24 1 7.8849139508656165 10.410820111392708 6.188753981701018 0 -1 0
818 24 1 8.655036829640558 10.249656091735824 5.630039465731159 0 -1 0
819 24 1 9.072304558978395 0.3167878344005679 5.280651996793378 0 0 0
820 24 1 8.622657113683864 1.1394750022101263 5.509186455599026 0 0 0
821 24 1 8.6627925406748 1.822286054592439 4.8284638878485415 0 0 0
822 24 1 7.943608044337719 1.7922224096372243 4.1857393453885665 0 0 0
823 24 1 7.375813472221285 2.5724845587818788 4.180709187609687 0 0 0
824 24 1 7.8352847255088065 3.403150301791948 4.007199560234365 0 0 0
825 24 1 7.439941630326196 4.176801762977471 4.427190338343769 0 0 0
826 24 1 7.343051546454845 4.943041995157474 3.84864628795855 0 0 0
827 24 1 7.5099011330476415 5.79254499551454 4.274945323657855 0 0 0
828 24 1 7.211607893431577 5.84832636012219 5.19098821706507 0 0 0
829 24 1 7.073183122565098 4.995855718443147 5.621519734942548 0 0 0
830 24 1 6.5617975102132355 4.362110891527342 5.103757965557278 0 0 0
831 24 1 5.607488629283978 4.409215744943905 5.23903801790852 0 0 0
832 24 1 5.08486574735581 4.389958111258137 4.4280389631434 0 0 0
833 24 1 4.376438793477774 3.7347374746505064 4.42154524444161 0 0 0
834 24 1 3.68030527390283 3.8885971703970554 5.071891549842801 0 0 0
835 24 1 3.8695830340683877 3.543438182070437 5.952950118999276 0 0 0
836 24 1 3.360819551814304 3.9531205242332508 6.663263498885005 0 0 0
837 24 1 3.887752570771722 4.452261663339259 7.299207456151977 0 0 0
838 24 1 3.6611130234151865 5.3881134170869345 7.362776399681259 0 0 0
839 24 1 2.7916122095675426 5.616113947389028 7.011764871522644 0 0 0
840 24 1 2.0488625599641725 5.262097995289594 7.51596786999965 0 0 0
841 25 1 8.342003304410538 0.35878959700588037 7.35927345347149 0 0 0
842 25 1 7.686704659605011 0.15961286825566434 8.039080276650253 0 0 0
843 25 1 6.781723816466367 0.4031313198729446 7.809007598407072 0 0 0
844 25 1 6.222110415179742 0.6287810470580288 8.562094606475668 0 0 0
845 25 1 6.040627208846962 10.625095147788516 9.162379318054064 0 -1 0
846 25 1 5.116807010278959 10.54253209987077 9.428771104406998 0 -1 0
847 25 1 4.494852482104761 0.3088717238637825 8.882621059953667 0 0 0
848 25 1 4.282241192889644 1.1897927453420987 9.214282926341536 0 0 0
849 25 1 5.045829161904422 1.764746587733549 9.346897000614184 0 0 0
850 25 1 5.213750334806243 2.00470622367433 10.266378839918499 0 0 0
851 25 1 4.656026087519598 2.7158046490721053 10.604768694059175 0 0 0
852 25 1 3.707735426390255 2.5524192423679097 10.532139286165545 0 0 0
853 25 1 3.443846462061347 1.637897936142285 10.691005251572847 0 0 0
854 25 1 3.977259327171626 0.9793923587768332 10.229414393871531 0 0 0
855 25 1 4.706439455630021 0.6174292305872231 0.017825263459453566 0 0 1
856 25 1 5.324652001975181 0.07221909682233657 10.24580715714197 0 0 0
857 25 1 5.626711916770738 10.00926440911262 10.705789403258255 0 -1 0
858 25 1 6.365369452932589 9.555271100273169 10.282114858589459 0 -1 0
859 25 1 6.84178336141887 10.083808797439607 9.630269255340636 0 -1 0
860 25 1 6.870539230218682 0.2993068758201723 9.82231045350442 0 0 0
861 25 1 7.756382817378102 0.6820414352870867 9.826826655249077 0 0 0
862 25 1 8.13274631826406 0.8146588753760843 10.705455205766931 0 0 0
863 25 1 8.078722729196572 1.7205422362733915 0.3038413600449452 0 0 1
864 25 1 8.876078579721009 2.036266306456753 0.7462969613670527 0 0 1
865 25 1 9.214888636526956 1.4483579143888996 1.4324430594710513 0 0 1
866 25 1 9.929415457522936 0.8662075404474432 1.1464756414017874 0 0 1
867 25 1 0.08444759876281616 1.1677878979717122 1.386083778758799 1 0 1
868 25 1 0.7933572053660694 0.5523006174307588 1.1628180689914416 1 0 1
869 25 1 1.54202539619574 0.5631794184338258 1.7715894478592116 1 0 1
870 25 1 2.178572051050226 10.579872028585678 1.6390596498006254 1 -1 1
871 25 1 2.8711234581233462 0.043645098025572815 0.9955214729335005 1 0 1
872 25 1 3.7629936670672173 0.07768794104047716 1.3624460090957484 1 0 1
873 25 1 3.8006835183344823 0.23181183426196794 2.3143127543125885 1 0 1
874 25 1 3.215712300140197 0.9304090036436827 2.6321109116643093 1 0 1
875 25 1 3.3629366593680636 1.1920639184820527 3.5492186989995105 1 0 1
876 26 1 5.773186921591253 8.186958028989345 0.7778171770491866 -1 -1 1
877 26 1 5.650044953129372 8.132833951119483 10.552000839489198 -1 -1 0
878 26 1 5.212357171171671 8.89777495933486 10.15891095221736 -1 -1 0
879 26 1 5.558124594250204 9.160098510579438 9.297019866522614 -1 -1 0
880 26 1 5.873851045285822 10.07080250294063 9.250543567037354 -1 -1 0
881 26 1 6.6043871320468766 10.27417534959153 9.847353009979534 -1 -1 0
882 26 1 7.472481379988156 9.99759387834078 9.529327749265804 -1 -1 0
883 26 1 7.9502908427638905 10.669927083077607 9.028437362963299 -1 -1 0
884 26 1 8.576811228585788 10.320926080092185 8.382762904691365 -1 -1 0
885 26 1 9.467642645841945 10.68602241340706 8.44871025815928 -1 -1 0
886 26 1 10.099362068988935 10.32188517577817 7.816602955092119 -1 -1 0
887 26 1 0.10284653414372258 0.17973897753134338 7.596875924767595 0 0 0
888 26 1 0.0023497757535881902 0.6535514763229386 6.762234014999137 0 0 0
889 26 1 0.8072284514042849 0.7111736331245169 6.23301288491426 0 0 0
890 26 1 0.9678238420884338 1.5769124380390807 5.838132596527888 0 0 0
891 26 1 1.2465220516289044 2.258171132732542 6.462182994255109 0 0 0
892 26 1 0.5831930012656628 2.4949992156529603 7.121828376323716 0 0 0
893 26 1 0.8681966994132964 2.383133027797385 8.036969812418068 0 0 0
894 26 1 0.9126237441741747 3.2009920438106008 8.547222561180593 0 0 0
895 26 1 0.17063777916364842 3.3409594363507225 9.148131004084265 0 0 0
896 26 1 0.1548041692236275 2.7512676207332554 9.911831114985162 0 0 0
897 26 1 0.5879102671792733 3.101825479778533 10.699710100220347 0 0 0
898 26 1 0.27144866134068124 3.96918119873218 0.2506091328323663 0 0 1
899 26 1 0.9385777754109341 4.666179822064791 0.23172357665077037 0 0 1
900 26 1 1.3188957979143758 4.88231773237716 1.0918791471639615 0 0 1
901 26 1 0.9525534380221785 4.3814949530611 1.8309290907176816 0 0 1
902 26 1 0.7387276498897357 3.4627350115830637 1.6274992446655112 0 0 1
903 26 1 0.7625124416987177 2.866783983626682 2.386117499096775 0 0 1
904 26 1 1.0278955832115688 3.2821642872640666 3.215729451488306 0 0 1
905 26 1 0.761037766398708 4.205044713192905 3.306853680117552 0 0 1
906 26 1 10.545746002317838 4.338245941223299 3.4495216645193363 -1 0 1
907 26 1 10.003670913312213 4.2567063400072485 2.6553359864105754 -1 0 1
908 26 1 9.319608596545242 4.931238193208451 2.5642836619133043 -1 0 1
909 26 1 8.794357759265766 5.08134446629564 3.359773865949208 -1 0 1
910 26 1 8.574198992066274 4.281782853099031 3.8531868207118833 -1 0 1
911 27 1 6.695212171424941 2.40697072204285 4.513974672039989 0 1 0
912 27 1 7.526724777978914 2.2299128305601883 4.057397966320642 0 1 0
913 27 1 7.465395257935118 2.233202404105242 3.09435442178224 0 1 0
914 27 1 6.707996083563543 2.7157641518463826 2.741217549906371 0 1 0
915 27 1 6.562523151761367 3.582841957319994 3.1390098391327292 0 1 0
916 27 1 5.86172166710184 3.6087707845889536 3.8019049854533677 0 1 0
917 27 1 5.884586205431085 2.885108058999897 4.439881844344041 0 1 0
918 27 1 6.406795513176001 3.0632347009493834 5.231584653693846 0 1 0
919 27 1 5.898862264202764 3.394123930683742 5.982411619268001 0 1 0
920 27 1 6.214865527309993 3.0965216445407364 6.844269970151743 0 1 0
921 27 1 6.274545965588011 2.138325136402102 6.941854277690767 0 1 0
922 27 1 6.9017703016409655 1.7115936839684824 6.345435884474373 0 1 0
923 27 1 6.731448018883198 1.8624264163015738 5.407638034800406 0 1 0
924 27 1 6.438325503356709 1.0820616036100326 4.921495103139031 0 1 0
925 27 1 6.118232923907998 0.3597460597254205 5.475594368293343 0 1 0
926 27 1 5.171171903142657 0.18832284990948267 5.405490829985285 0 1 0
927 27 1 4.748597399469502 10.650994931757802 6.23091090166584 0 0 0
928 27 1 5.155319109403785 0.28470132804676673 7.026958975799348 0 1 0
929 27 1 4.8339475238412835 10.632827353062792 7.852972665397777 0 0 0
930 27 1 5.362563574094821 9.898950519113288 8.18944683083489 0 0 0
931 27 1 5.353387447508318 9.109233157808088 7.634931467698738 0 0 0
932 27 1 6.221422533872533 8.828573615453742 7.320335997092249 0 0 0
933 27 1 6.209201365368535 8.341673008349574 6.487267307342124 0 0 0
934 27 1 6.336999738142067 7.389308698662619 6.576119980632942 0 0 0
935 27 1 7.221101299318809 7.0788845918507795 6.345411715859183 0 0 0
936 27 1 7.239329963112159 6.352166087494216 5.710767775336572 0 0 0
937 27 1 7.421407993441303 5.486298011714926 6.095923673925347 0 0 0
938 27 1 8.3576529618173 5.294256791504818 6.22930481551156 0 0 0
939 27 1 8.797183825586874 5.863135604875542 6.87305516734982 0 0 0
940 27 1 9.626775602355814 6.250064101684086 6.567622978026511 0 0 0
941 27 1 9.872638807074612 7.073119850480203 7.00734507087501 0 0 0
942 27 1 9.550783762651252 7.872682747784837 6.5733709891223615 0 0 0
943 27 1 9.622542680727292 8.675221097506032 7.10441510678429 0 0 0
944 27 1 9.216606467616582 8.617115596341012 7.977950762392975 0 0 0
945 27 1 9.200076917794103 7.729201310726635 8.355521941622236 0 0 0
946 28 1 7.314608732658345 7.937222897897902 8.018596748683422 0 0 0
947 28 1 7.205033509039943 7.187531978617656 8.616243630979078 0 0 0
948 28 1 7.670336823627567 7.272361996397874 9.457386718400699 0 0 0
949 28 1 7.7730547331293876 6.446164740910245 9.945313071544579 0 0 0
950 28 1 8.686507749400985 6.208762255997505 10.14648127783369 0 0 0
951 28 1 9.078238432185733 6.701138460223094 0.14838618216112565 0 0 1
952 28 1 8.862293606376877 7.641573572290412 0.16160102976949808 0 0 1
953 28 1 9.57251215520715 8.212910753150952 0.4784423759725307 0 0 1
954 28 1 9.328719200377408 9.14156846819697 0.5753177777053367 0 0 1
955 28 1 9.444503062633647 9.497103178267647 1.4649323949278674 0 0 1
956 28 1 10.244810258628783 10.022260013763997 1.5871767819968028 0 0 1
957 28 1 10.179933535348889 10.701303244182142 2.2697574014109154 0 0 1
958 28 1 0.2928606322188685 0.36533122773155036 2.526715297310739 1 1 1
959 28 1 1.0269908134017633 10.471514276885692 2.5852479586564137 1 0 1
960 28 1 1.7185264760806653 10.60124211012214 1.9248131651097466 1 0 1
961 28 1 1.4465853158240947 10.420127476140387 1.0168095887313466 1 0 1
962 28 1 1.0040442079193141 0.42549851310731057 0.5752662806754145 1 1 1
963 28 1 1.445553906927307 0.7396406783523002 10.506525004938808 1 1 0
964 28 1 1.1643466611235098 1.6134042875992805 10.208725340628838 1 1 0
965 28 1 0.24812086762022112 1.6607597350686216 9.909538514524737 1 1 0
966 28 1 10.505223307490285 0.81961419812394 9.92660587005619 0 1 0
967 28 1 9.59068269217301 0.8659156816726945 9.622144648295054 0 1 0
968 28 1 8.955740415717903 0.4058155286750562 10.18462234099189 0 1 0
969 28 1 8.044397706790717 0.43348574520471317 9.86853085739504 0 1 0
970 28 1 7.688529973844377 10.309961631923539 9.59197260883401 0 0 0
971 28 1 8.34069703033705 9.703631498892527 9.220130034342764 0 0 0
972 28 1 8.964896870096156 9.341867763646192 9.861009554927817 0 0 0
973 28 1 9.89291709778755 9.425630522057293 9.610036932319336 0 0 0
974 28 1 10.140019606903811 10.292993966601866 9.266749873058107 0 0 0
975 28 1 10.047009977059062 0.28708435392572795 9.89810607764933 0 1 0
976 28 1 9.209846525289901 0.7638780672294097 9.84287827689618 0 1 0
977 28 1 8.480549463313437 0.25413068149619455 9.46937004655761 0 1 0
978 28 1 7.61149936764888 0.47455080452925813 9.82629006643253 0 1 0
979 28 1 7.565039026588961 0.49167290582021295 0.06025602360665694 0 1 1
980 28 1 8.272687481262597 0.9889292888621934 0.48826858664893535 0 1 1
981 29 1 1.8741991119615562 9.444796611468615 2.981704422490862 0 0 0
982 29 1 2.7680321897621933 9.384873253755648 2.6229613107383933 0 0 0
983 29 1 3.095940545494404 10.199108207003583 2.2220591391923525 0 0 0
984 29 1 3.6314623601243734 0.018609542297147286 2.807507863303142 0 1 0
985 29 1 4.545902526983791 10.456799513484443 2.9075549545017103 0 0 0
986 29 1 4.666727876968501 9.710283938339069 3.507005311801164 0 0 0
987 29 1 3.847722137768928 9.338852852829072 3.856996094358399 0 0 0
988 29 1 3.675849564670291 8.426111750593094 3.595102033895959 0 0 0
989 29 1 4.267791338036572 8.084961977195661 2.913598718383216 0 0 0
990 29 1 3.9268439819828025 7.323078939835863 2.429332120543399 0 0 0
991 29 1 4.569434344054225 6.893119301038638 1.8518917897920062 0 0 0
992 29 1 4.32330375797009 6.004407106177359 1.5675761741485335 0 0 0
993 29 1 3.5381427959993816 5.646830210227202 1.9998793400863757 0 0 0
994 29 1 3.0604794834773115 4.986110954763957 1.4836305383148487 0 0 0
995 29 1 2.5598857358277556 4.350054152070265 2.0090471763852937 0 0 0
996 29 1 2.9281275267078755 4.172029788783427 2.8830782453557946 0 0 0
997 29 1 3.499496671759055 4.868846770254997 3.228343932061456 0 0 0
998 29 1 3.2789550477684637 5.164906307464259 4.1199352860544325 0 0 0
999 29 1 3.7174633206169965 4.675111170718456 4.826360242198788 0 0 0
1000 29 1 4.27499476640523 5.212446156216546 5.4022550245306356 0 0 0
1001 29 1 5.204479466072767 4.953530673815375 5.417938329568667 0 0 0
1002 29 1 5.578071236578581 4.743285456001921 4.553385764713931 0 0 0
1003 29 1 4.954873384831246 4.348844048737059 3.9310792375005166 0 0 0
1004 29 1 4.076846951912677 4.749207920523687 3.9329104295470865 0 0 0
1005 29 1 3.9136116125795892 5.363969925251382 3.207206012076727 0 0 0
1006 29 1 4.638172056849233 5.440797465168876 2.5744859383395333 0 0 0
1007 29 1 5.3214141601931875 4.764890845549084 2.661408143628357 0 0 0
1008 29 1 6.050746866315822 5.0031747213342435 3.24665988290013 0 0 0
1009 29 1 6.8170943489307065 4.419212249988971 3.192582457386811 0 0 0
1010 29 1 6.675030495845374 3.61587176418894 2.67713418110575 0 0 0
1011 29 1 7.399733653762642 3.385861178723448 2.082890574931852 0 0 0
1012 29 1 7.544013050859656 2.43810996095905 1.9725452768923744 0 0 0
1013 29 1 6.999712814834381 1.8795594828785056 2.54086175254553 0 0 0
1014 29 1 7.485572766446782 1.1939187998876424 3.0152687099639643 0 0 0
1015 29 1 8.3806164813624 1.0372641145997132 2.690336320123575 0 0 0
1016 30 1 5.544641087615935 4.042365911472176 3.7508665280003113 0 0 0
1017 30 1 5.65277617493922 4.978174735203609 3.9601358480545814 0 0 0
1018 30 1 5.205760038101562 5.264353741766599 4.766053430447071 0 0 0
1019 30 1 4.275978990978093 5.012052771472099 4.821518958466193 0 0 0
1020 30 1 3.657435910428784 5.752745483431167 4.819578866898036 0 0 0
1021 30 1 3.9410447834180244 6.5149463742710045 5.339040905130601 0 0 0
1022 30 1 3.556702039302463 6.564871865625131 6.22279036077896 0 0 0
1023 30 1 4.164719452458838 6.864948604956221 6.909444404538298 0 0 0
1024 30 1 4.559044410430996 7.73063359296668 6.747202828320647 0 0 0
1025 30 1 4.068028039622556 8.287023919101935 6.130309216276225 0 0 0
1026 30 1 3.228102592631261 7.91528255620465 5.834406187214773 0 0 0
1027 30 1 2.5977257239754814 7.732423429561642 6.541804620395884 0 0 0
1028 30 1 2.870997341054389 8.041967959279535 7.414002881928666 0 0 0
1029 30 1 2.317659762710156 7.733377083731 8.141886248904672 0 0 0
1030 30 1 2.802010187790532 7.491049613376505 8.94057709199482 0 0 0
1031 30 1 3.244181895235452 8.226724235788469 9.381589598704391 0 0 0
1032 30 1 4.156773528663143 8.050304857515684 9.640969076627423 0 0 0
1033 30 1 4.292364216146286 7.948378609434994 10.59094339492242 0 0 0
1034 30 1 3.9791432019177297 8.689496575558593 0.3939672989390193 0 0 1
1035 30 1 3.1887168358846925 8.504141960563429 0.9155943942665168 0 0 1
1036 30 1 3.184979469206843 8.901234818974084 1.7950989672447228 0 0 1
1037 30 1 3.4893372342119195 9.816510729357134 1.8244478812552423 0 0 1
1038 30 1 4.447151366829919 9.923612822414807 1.7760099929868822 0 0 1
1039 30 1 4.828332936296659 9.745789874089855 0.9075028772141334 0 0 1
1040 30 1 4.3930025590518795 9.039928029029458 0.4140745457050343 0 0 1
1041 30 1 4.116209449910975 9.284066731364458 10.252205848254924 0 0 0
1042 30 1 4.619019367136919 8.861606868332004 9.545145135680789 0 0 0
1043 30 1 4.102562543107505 8.27425742210906 8.979885923517863 0 0 0
1044 30 1 3.332893177024129 8.686106799419509 8.56852943904021 0 0 0
1045 30 1 3.4965377887999445 9.061620274451176 7.694781723102487 0 0 0
1046 30 1 2.700834703537538 9.247441450880395 7.181408476337181 0 0 0
1047 30 1 2.0383129902245853 8.546012615707356 7.198366323390044 0 0 0
1048 30 1 1.234898556531716 8.763336080855082 7.686752194633424 0 0 0
1049 30 1 0.5820819095419827 9.265654556767466 7.184028041473715 0 0 0
1050 30 1 0.8760295062036647 10.141575162544497 6.905490965320428 0 0 0

Bonds

1 1 1 2
2 1 2 3
3 1 3 4
4 1 4 5
5 1 5 6
6 1 6 7
7 1 7 8
8 1 8 9
9 1 9 10
10 1 10 11
11 1 11 12
12 1 12 13
13 1 13 14
14 1 14 15
15 1 15 16
16 1 16 17
17 1 17 18
18 1 18 19
19 1 19 20
20 1 20 21
21 1 21 22
22 1 22 23
23 1 23 24
24 1 24 25
25 1 25 26
26 1 26 27
27 1 27 28
28 1 28 29
29 1 29 30
30 1 30 31
31 1 31 32
32 1 32 33
33 1 33 34
34 1 34 35
35 1 36 37
36 1 37 38
37 1 38 39
38 1 39 40
39 1 40 41
40 1 41 42
41 1 42 43
42 1 43 44
43 1 44 45
44 1 45 46
45 1 46 47
46 1 47 48
47 1 48 49
48 1 49 50
49 1 50 51
50 1 51 52
51 1 52 53
52 1 53 54
53 1 54 55
54 1 55 56
55 1 56 57
56 1 57 58
57 1 58 59
58 1 59 60
59 1 60 61
60 1 61 62
61 1 62 63
62 1 63 64
63 1 64 65
64 1 65 66
65 1 66 67
66 1 67 68
67 1 68 69
68 1 69 70
69 1 71 72
70 1 72 73
71 1 73 74
72 1 74 75
73 1 75 76
74 1 76 77
75 1 77 78
76 1 78 79
77 1 79 80
78 1 80 81
79 1 81 82
80 1 82 83
81 1 83 84
82 1 84 85
83 1 85 86
84 1 86 87
85 1 87 88
86 1 88 89
87 1 89 90
88 1 90 91
89 1 91 92
90 1 92 93
91 1 93 94
92 1 94 95
93 1 95 96
94 1 96 97
95 1 97 98
96 1 98 99
97 1 99 100
98 1 100 101
99 1 101 102
100 1 102 103
101 1 103 104
102 1 104 105
103 1 106 107
104 1 107 108
105 1 108 109
106 1 109 110
107 1 110 111
108 1 111 112
109 1 112 113
110 1 113 114
111 1 114 115
112 1 115 116
113 1 116 117
114 1 117 118
115 1 118 119
116 1 119 120
117 1 120 121
118 1 121 122
119 1 122 123
120 1 123 124
121 1 124 125
122 1 125 126
123 1 126 127
124 1 127 128
125 1 128 129
126 1 129 130
127 1 130 131
128 1 131 132
129 1 132 133
130 1 133 134
131 1 134 135
132 1 135 136
133 1 136 137
134 1 137 138
135 1 138 139
136 1 139 140
137 1 141 142
138 1 142 143
139 1 143 144
140 1 144 145
141 1 145 146
142 1 146 147
143 1 147 148
144 1 148 149
145 1 149 150
146 1 150 151
147 1 151 152
148 1 152 153
149 1 153 154
150 1 154 155
151 1 155 156
152 1 156 157
153 1 157 158
154 1 158 159
155 1 159 160
156 1 160 161
157 1 161 162
158 1 162 163
159 1 163 164
160 1 164 165
161 1 165 166
162 1 166 167
163 1 167 168
164 1 168 169
165 1 169 170
166 1 170 171
167 1 171 172
168 1 172 173
169 1 173 174
170 1 174 175
171 1 176 177
172 1 177 178
173 1 178 179
174 1 179 180
175 1 180 181
176 1 181 182
177 1 182 183
178 1 183 184
179 1 184 185
180 1 185 186
181 1 186 187
182 1 187 188
183 1 188 189
184 1 189 190
185 1 190 191
186 1 191 192
187 1 192 193
188 1 193 194
189 1 194 195
190 1 195 196
191 1 196 197
192 1 197 198
193 1 198 199
194 1 199 200
195 1 200 201
196 1 201 202
197 1 202 203
198 1 203 204
199 1 204 205
200 1 205 206
201 1 206 207
202 1 207 208
203 1 208 209
204 1 209 210
205 1 211 212
206 1 212 213
207 1 213 214
208 1 214 215
209 1 215 216
210 1 216 217
211 1 217 218
212 1 218 219
213 1 219 220
214 1 220 221
215 1 221 222
216 1 222 223
217 1 223 224
218 1 224 225
219 1 225 226
220 1 226 227
221 1 227 228
222 1 228 229
223 1 229 230
224 1 230 231
225 1 231 232
226 1 232 233
227 1 233 234
228 1 234 235
229 1 235 236
230 1 236 237
231 1 237 238
232 1 238 239
233 1 239 240
234 1 240 241
235 1 241 242
236 1 242 243
237 1 243 244
238 1 244 245
239 1 246 247
240 1 247 248
241 1 248 249
242 1 249 250
243 1 250 251
244 1 251 252
245 1 252 253
246 1 253 254
247 1 254 255
248 1 255 256
249 1 256 257
250 1 257 258
251 1 258 259
252 1 259 260
253 1 260 261
254 1 261 262
255 1 262 263
256 1 263 264
257 1 264 265
258 1 265 266
259 1 266 267
260 1 267 268
261 1 268 269
262 1 269 270
263 1 270 271
264 1 271 272
265 1 272 273
266 1 273 274
267 1 274 275
268 1 275 276
269 1 276 277
270 1 277 278
271 1 278 279
272 1 279 280
273 1 281 282
274 1 282 283
275 1 283 284
276 1 284 285
277 1 285 286
278 1 286 287
279 1 287 288
280 1 288 289
281 1 289 290
282 1 290 291
283 1 291 292
284 1 292 293
285 1 293 294
286 1 294 295
287 1 295 296
288 1 296 297
289 1 297 298
290 1 298 299
291 1 299 300
292 1 300 301
293 1 301 302
294 1 302 303
295 1 303 304
296 1 304 305
297 1 305 306
298 1 306 307
299 1 307 308
300 1 308 309
301 1 309 310
302 1 310 311
303 1 311 312
304 1 312 313
305 1 313 314
306 1 314 315
307 1 316 317
308 1 317 318
309 1 318 319
310 1 319 320
311 1 320 321
312 1 321 322
313 1 322 323
314 1 323 324
315 1 324 325
316 1 325 326
317 1 326 327
318 1 327 328
319 1 328 329
320 1 329 330
321 1 330 331
322 1 331 332
323 1 332 333
324 1 333 334
325 1 334 335
326 1 335 336
327 1 336 337
328 1 337 338
329 1 338 339
330 1 339 340
331 1 340 341
332 1 341 342
333 1 342 343
334 1 343 344
335 1 344 345
336 1 345 346
337 1 346 347
338 1 347 348
339 1 348 349
340 1 349 350
341 1 351 352
342 1 352 353
343 1 353 354
344 1 354 355
345 1 355 356
346 1 356 357
347 1 357 358
348 1 358 359
349 1 359 360
350 1 360 361
351 1 361 362
352 1 362 363
353 1 363 364
354 1 364 365
355 1 365 366
356 1 366 367
357 1 367 368
358 1 368 369
359 1 369 370
360 1 370 371
361 1 371 372
362 1 372 373
363 1 373 374
364 1 374 375
365 1 375 376
366 1 376 377
367 1 377 378
368 1 378 379
369 1 379 380
370 1 380 381
371 1 381 382
372 1 382 383
373 1 383 384
374 1 384 385
375 1 386 387
376 1 387 388
377 1 388 389
378 1 389 390
379 1 390 391
380 1 391 392
381 1 392 393
382 1 393 394
383 1 394 395
384 1 395 396
385 1 396 397
386 1 397 398
387 1 398 399
388 1 399 400
389 1 400 401
390 1 401 402
391 1 402 403
392 1 403 404
393 1 404 405
394 1 405 406
395 1 406 407
396 1 407 408
397 1 408 409
398 1 409 410
399 1 410 411
400 1 411 412
401 1 412 413
402 1 413 414
403 1 414 415
404 1 415 416
405 1 416 417
406 1 417 418
407 1 418 419
408 1 419 420
409 1 421 422
410 1 422 423
411 1 423 424
412 1 424 425
413 1 425 426
414 1 426 427
415 1 427 428
416 1 428 429
417 1 429 430
418 1 430 431
419 1 431 432
420 1 432 433
421 1 433 434
422 1 434 435
423 1 435 436
424 1 436 437
425 1 437 438
426 1 438 439
427 1 439 440
428 1 440 441
429 1 441 442
430 1 442 443
431 1 443 444
432 1 444 445
433 1 445 446
434 1 446 447
435 1 447 448
436 1 448 449
437 1 449 450
438 1 450 451
439 1 451 452
440 1 452 453
441 1 453 454
442 1 454 455
443 1 456 457
444 1 457 458
445 1 458 459
446 1 459 460
447 1 460 461
448 1 461 462
449 1 462 463
450 1 463 464
451 1 464 465
452 1 465 466
453 1 466 467
454 1 467 468
455 1 468 469
456 1 469 470
457 1 470 471
458 1 471 472
459 1 472 473
460 1 473 474
461 1 474 475
462 1 475 476
463 1 476 477
464 1 477 478
465 1 478 479
466 1 479 480
467 1 480 481
468 1 481 482
469 1 482 483
470 1 483 484
471 1 484 485
472 1 485 486
473 1 486 487
474 1 487 488
475 1 488 489
476 1 489 490
477 1 491 492
478 1 492 493
479 1 493 494
480 1 494 495
481 1 495 496
482 1 496 497
483 1 497 498
484 1 498 499
485 1 499 500
486 1 500 501
487 1 501 502
488 1 502 503
489 1 503 504
490 1 504 505
491 1 505 506
492 1 506 507
493 1 507 508
494 1 508 509
495 1 509 510
496 1 510 511
497 1 511 512
498 1 512 513
499 1 513 514
500 1 514 515
501 1 515 516
502 1 516 517
503 1 517 518
504 1 518 519
505 1 519 520
506 1 520 521
507 1 521 522
508 1 522 523
509 1 523 524
510 1 524 525
511 1 526 527
512 1 527 528
513 1 528 529
514 1 529 530
515 1 530 531
516 1 531 532
517 1 532 533
518 1 533 534
519 1 534 535
520 1 535 536
521 1 536 537
522 1 537 538
523 1 538 539
524 1 539 540
525 1 540 541
526 1 541 542
527 1 542 543
528 1 543 544
529 1 544 545
530 1 545 546
531 1 546 547
532 1 547 548
533 1 548 549
534 1 549 550
535 1 550 551
536 1 551 552
537 1 552 553
538 1 553 554
539 1 554 555
540 1 555 556
541 1 556 557
542 1 557 558
543 1 558 559
544 1 559 560
545 1 561 562
546 1 562 563
547 1 563 564
548 1 564 565
549 1 565 566
550 1 566 567
551 1 567 568
552 1 568 569
553 1 569 570
554 1 570 571
555 1 571 572
556 1 572 573
557 1 573 574
558 1 574 575
559 1 575 576
560 1 576 577
561 1 577 578
562 1 578 579
563 1 579 580
564 1 580 581
565 1 581 582
566 1 582 583
567 1 583 584
568 1 584 585
569 1 585 586
570 1 586 587
571 1 587 588
572 1 588 589
573 1 589 590
574 1 590 591
575 1 591 592
576 1 592 593
577 1 593 594
578 1 594 595
579 1 596 597
580 1 597 598
581 1 598 599
582 1 599 600
583 1 600 601
584 1 601 602
585 1 602 603
586 1 603 604
587 1 604 605
588 1 605 606
589 1 606 607
590 1 607 608
591 1 608 609
592 1 609 610
593 1 610 611
594 1 611 612
595 1 612 613
596 1 613 614
597 1 614 615
598 1 615 616
599 1 616 617
600 1 617 618
601 1 618 619
602 1 619 620
603 1 620 621
604 1 621 622
605 1 622 623
606 1 623 624
607 1 624 625
608 1 625 626
609 1 626 627
610 1 627 628
611 1 628 629
612 1 629 630
613 1 631 632
614 1 632 633
615 1 633 634
616 1 634 635
617 1 635 636
618 1 636 637
619 1 637 638
620 1 638 639
621 1 639 640
622 1 640 641
623 1 641 642
624 1 642 643
625 1 643 644
626 1 644 645
627 1 645 646
628 1 646 647
629 1 647 648
630 1 648 649
631 1 649 650
632 1 650 651
633 1 651 652
634 1 652 653
635 1 653 654
636 1 654 655
637 1 655 656
638 1 656 657
639 1 657 658
640 1 658 659
641 1 659 660
642 1 660 661
643 1 661 662
644 1 662 663
645 1 663 664
646 1 664 665
647 1 666 667
648 1 667 668
649 1 668 669
650 1 669 670
651 1 670 671
652 1 671 672
653 1 672 673
654 1 673 674
655 1 674 675
656 1 675 676
657 1 676 677
658 1 677 678
659 1 678 679
660 1 679 680
661 1 680 681
662 1 681 682
663 1 682 683
664 1 683 684
665 1 684 685
666 1 685 686
667 1 686 687
668 1 687 688
669 1 688 689
670 1 689 690
671 1 690 691
672 1 691 692
673 1 692 693
674 1 693 694
675 1 694 695
676 1 695 696
677 1 696 697
678 1 697 698
679 1 698 699
680 1 699 700
681 1 701 702
682 1 702 703
683 1 703 704
684 1 704 705
685 1 705 706
686 1 706 707
687 1 707 708
688 1 708 709
689 1 709 710
690 1 710 711
691 1 711 712
692 1 712 713
693 1 713 714
694 1 714 715
695 1 715 716
696 1 716 717
697 1 717 718
698 1 718 719
699 1 719 720
700 1 720 721
701 1 721 722
702 1 722 723
703 1 723 724
704 1 724 725
705 1 725 726
706 1 726 727
707 1 727 728
708 1 728 729
709 1 729 730
710 1 730 731
711 1 731 732
712 1 732 733
713 1 733 734
714 1 734 735
715 1 736 737
716 1 737 738
717 1 738 739
718 1 739 740
719 1 740 741
720 1 741 742
721 1 742 743
722 1 743 744
723 1 744 745
724 1 745 746
725 1 746 747
726 1 747 748
727 1 748 749
728 1 749 750
729 1 750 751
730 1 751 752
731 1 752 753
732 1 753 754
733 1 754 755
734 1 755 756
735 1 756 757
736 1 757 758
737 1 758 759
738 1 759 760
739 1 760 761
740 1 761 762
741 1 762 763
742 1 763 764
743 1 764 765
744 1 765 766
745 1 766 767
746 1 767 768
747 1 768 769
748 1 769 770
749 1 771 772
750 1 772 773
751 1 773 774
752 1 774 775
753 1 775 776
754 1 776 777
755 1 777 778
756 1 778 779
757 1 779 780
758 1 780 781
759 1 781 782
760 1 782 783
761 1 783 784
762 1 784 785
763 1 785 786
764 1 786 787
765 1 787 788
766 1 788 789
767 1 789 790
768 1 790 791
769 1 791 792
770 1 792 793
771 1 793 794
772 1 794 795
773 1 795 796
774 1 796 797
775 1 797 798
776 1 798 799
777 1 799 800
778 1 800 801
779 1 801 802
780 1 802 803
781 1 803 804
782 1 804 805
783 1 806 807
784 1 807 808
785 1 808 809
786 1 809 810
787 1 810 811
788 1 811 812
789 1 812 813
790 1 813 814
791 1 814 815
792 1 815 816
793 1 816 817
794 1 817 818
795 1 818 819
796 1 819 820
797 1 820 821
798 1 821 822
799 1 822 823
800 1 823 824
801 1 824 825
802 1 825 826
803 1 826 827
804 1 827 828
805 1 828 829
806 1 829 830
807 1 830 831
808 1 831 832
809 1 832 833
810 1 833 834
811 1 834 835
812 1 835 836
813 1 836 837
814 1 837 838
815 1 838 839
816 1 839 840
817 1 841 842
818 1 842 843
819 1 843 844
820 1 844 845
821 1 845 846
822 1 846 847
823 1 847 848
824 1 848 849
825 1 849 850
826 1 850 851
827 1 851 852
828 1 852 853
829 1 853 854
830 1 854 855
831 1 855 856
832 1 856 857
833 1 857 858
834 1 858 859
835 1 859 860
836 1 860 861
837 1 861 862
838 1 862 863
839 1 863 864
840 1 864 865
841 1 865 866
842 1 866 867
843 1 867 868
844 1 868 869
845 1 869 870
846 1 870 871
847 1 871 872
848 1 872 873
849 1 873 874
850 1 874 875
851 1 876 877
852 1 877 878
853 1 878 879
854 1 879 880
855 1 880 881
856 1 881 882
857 1 882 883
858 1 883 884
859 1 884 885
860 1 885 886
861 1 886 887
862 1 887 888
863 1 888 889
864 1 889 890
865 1 890 891
866 1 891 892
867 1 892 893
868 1 893 894
869 1 894 895
870 1 895 896
871 1 896 897
872 1 897 898
873 1 898 899
874 1 899 900
875 1 900 901
876 1 901 902
877 1 902 903
878 1 903 904
879 1 904 905
880 1 905 906
881 1 906 907
882 1 907 908
883 1 908 909
884 1 909 910
885 1 911 912
886 1 912 913
887 1 913 914
888 1 914 915
889 1 915 916
890 1 916 917
891 1 917 918
892 1 918 919
893 1 919 920
894 1 920 921
895 1 921 922
896 1 922 923
897 1 923 924
898 1 924 925
899 1 925 926
900 1 926 927
901 1 927 928
902 1 928 929
903 1 929 930
904 1 930 931
905 1 931 932
906 1 932 933
907 1 933 934
908 1 934 935
909 1 935 936
910 1 936 937
911 1 937 938
912 1 938 939
913 1 939 940
914 1 940 941
915 1 941 942
916 1 942 943
917 1 943 944
918 1 944 945
919 1 946 947
920 1 947 948
921 1 948 949
922 1 949 950
923 1 950 951
924 1 951 952
925 1 952 953
926 1 953 954
927 1 954 955
928 1 955 956
929 1 956 957
930 1 957 958
931 1 958 959
932 1 959 960
933 1 960 961
934 1 961 962
935 1 962 963
936 1 963 964
937 1 964 965
938 1 965 966
939 1 966 967
940 1 967 968
941 1 968 969
942 1 969 970
943 1 970 971
944 1 971 972
945 1 972 973
946 1 973 974
947 1 974 975
948 1 975 976
949 1 976 977
950 1 977 978
951 1 978 979
952 1 979 980
953 1 981 982
954 1 982 983
955 1 983 984
956 1 984 985
957 1 985 986
958 1 986 987
959 1 987 988
960 1 988 989
961 1 989 990
962 1 990 991
963 1 991 992
964 1 992 993
965 1 993 994
966 1 994 995
967 1 995 996
968 1 996 997
969 1 997 998
970 1 998 999
971 1 999 1000
972 1 1000 1001
973 1 1001 1002
974 1 1002 1003
975 1 1003 1004
976 1 1004 1005
977 1 1005 1006
978 1 1006 1007
979 1 1007 1008
980 1 1008 1009
981 1 1009 1010
982 1 1010 1011
983 1 1011 1012
984 1 1012 1013
985 1 1013 1014
986 1 1014 1015
987 1 1016 1017
988 1 1017 1018
989 1 1018 1019
990 1 1019 1020
991 1 1020 1021
992 1 1021 1022
993 1 1022 1023
994 1 1023 1024
995 1 1024 1025
996 1 1025 1026
997 1 1026 1027
998 1 1027 1028
999 1 1028 1029
1000 1 1029 1030
1001 1 1030 1031
1002 1 1031 1032
1003 1 1032 1033
1004 1 1033 1034
1005 1 1034 1035
1006 1 1035 1036
1007 1 1036 1037
1008 1 1037 1038
1009 1 1038 1039
1010 1 1039 1040
1011 1 1040 1041
1012 1 1041 1042
1013 1 1042 1043
1014 1 1043 1044
1015 1 1044 1045
1016 1 1045 1046
1017 1 1046 1047
1018 1 1047 1048
1019 1 1048 1049
1020 1 1049 1050

Angles

1 1 1 2 3
2 1 2 3 4
3 1 3 4 5
4 1 4 5 6
5 1 5 6 7
6 1 6 7 8
7 1 7 8 9
8 1 8 9 10
9 1 9 10 11
10 1 10 11 12
11 1 11 12 13
12 1 12 13 14
13 1 13 14 15
14 1 14 15 16
15 1 15 16 17
16 1 16 17 18
17 1 17 18 19
18 1 18 19 20
19 1 19 20 21
20 1 20 21 22
21 1 21 22 23
22 1 22 23 24
23 1 23 24 25
24 1 24 25 26
25 1 25 26 27
26 1 26 27 28
27 1 27 28 29
28 1 28 29 30
29 1 29 30 31
30 1 30 31 32
31 1 31 32 33
32 1 32 33 34
33 1 33 34 35
34 1 36 37 38
35 1 37 38 39
36 1 38 39 40
37 1 39 40 41
38 1 40 41 42
39 1 41 42 43
40 1 42 43 44
41 1 43 44 45
42 1 44 45 46
43 1 45 46 47
44 1 46 47 48
45 1 47 48 49
46 1 48 49 50
47 1 49 50 51
48 1 50 51 52
49 1 51 52 53
50 1 52 53 54
51 1 53 54 55
52 1 54 55 56
53 1 55 56 57
54 1 56 57 58
55 1 57 58 59
56 1 58 59 60
57 1 59 60 61
58 1 60 61 62
59 1 61 62 63
60 1 62 63 64
61 1 63 64 65
62 1 64 65 66
63 1 65 66 67
64 1 66 67 68
65 1 67 68 69
66 1 68 69 70
67 1 71 72 73
68 1 72 73 74
69 1 73 74 75
70 1 74 75 76
71 1 75 76 77
72 1 76 77 78
73 1 77 78 79
74 1 78 79 80
75 1 79 80 81
76 1 80 81 82
77 1 81 82 83
78 1 82 83 84
79 1 83 84 85
80 1 84 85 86
81 1 85 86 87
82 1 86 87 88
83 1 87 88 89
84 1 88 89 90
85 1 89 90 91
86 1 90 91 92
87 1 91 92 93
88 1 92 93 94
89 1 93 94 95
90 1 94 95 96
91 1 95 96 97
92 1 96 97 98
93 1 97 98 99
94 1 98 99 100
95 1 99 100 101
96 1 100 101 102
97 1 101 102 103
98 1 102 103 104
99 1 103 104 105
100 1 106 107 108
101 1 107 108 109
102 1 108 109 110
103 1 109 110 111
104 1 110 111 112
105 1 111 112 113
106 1 112 113 114
107 1 113 114 115
108 1 114 115 116
109 1 115 116 117
110 1 116 117 118
111 1 117 118 119
112 1 118 119 120
113 1 119 120 121
114 1 120 121 122
115 1 121 122 123
116 1 122 123 124
117 1 123 124 125
118 1 124 125 126
119 1 125 126 127
120 1 126 127 128
121 1 127 128 129
122 1 128 129 130
123 1 129 130 131
124 1 130 131 132
125 1 131 132 133
126 1 132 133 134
127 1 133 134 135
128 1 134 135 136
129 1 135 136 137
130 1 136 137 138
131 1 137 138 139
132 1 138 139 140
133 1 141 142 143
134 1 142 143 144
135 1 143 144 145
136 1 144 145 146
137 1 145 146 147
138 1 146 147 148
139 1 147 148 149
140 1 148 149 150
141 1 149 150 151
142 1 150 151 152
143 1 151 152 153
144 1 152 153 154
145 1 153 154 155
146 1 154 155 156
147 1 155 156 157
148 1 156 157 158
149 1 157 158 159
150 1 158 159 160
151 1 159 160 161
152 1 160 161 162
153 1 161 162 163
154 1 162 163 164
155 1 163 164 165
156 1 164 165 166
157 1 165 166 167
158 1 166 167 168
159 1 167 168 169
160 1 168 169 170
161 1 169 170 171
162 1 170 171 172
163 1 171 172 173
164 1 172 173 174
165 1 173 174 175
166 1 176 177 178
167 1 177 178 179
168 1 178 179 180
169 1 179 180 181
170 1 180 181 182
171 1 181 182 183
172 1 182 183 184
173 1 183 184 185
174 1 184 185 186
175 1 185 186 187
176 1 186 187 188
177 1 187 188 189
178 1 188 189 190
179 1 189 190 191
180 1 190 191 192
181 1 191 192 193
182 1 192 193 194
183 1 193 194 195
184 1 194 195 196
185 1 195 196 197
186 1 196 197 198
187 1 197 198 199
188 1 198 199 200
189 1 199 200 201
190 1 200 201 202
191 1 201 202 203
192 1 202 203 204
193 1 203 204 205
194 1 204 205 206
195 1 205 206 207
196 1 206 207 208
197 1 207 208 209
198 1 208 209 210
199 1 211 212 213
200 1 212 213 214
201 1 213 214 215
202 1 214 215 216
203 1 215 216 217
204 1 216 217 218
205 1 217 218 219
206 1 218 219 220
207 1 219 220 221
208 1 220 221 222
209 1 221 222 223
210 1 222 223 224
211 1 223 224 225
212 1 224 225 226
213 1 225 226 227
214 1 226 227 228
215 1 227 228 229
216 1 228 229 230
217 1 229 230 231
218 1 230 231 232
219 1 231 232 233
220 1 232 233 234
221 1 233 234 235
222 1 234 235 236
223 1 235 236 237
224 1 236 237 238
225 1 237 238 239
226 1 238 239 240
227 1 239 240 241
228 1 240 241 242
229 1 241 242 243
230 1 242 243 244
231 1 243 244 245
232 1 246 247 248
233 1 247 248 249
234 1 248 249 250
235 1 249 250 251
236 1 250 251 252
237 1 251 252 253
238 1 252 253 254
239 1 253 254 255
240 1 254 255 256
241 1 255 256 257
242 1 256 257 258
243 1 257 258 259
244 1 258 259 260
245 1 259 260 261
246 1 260 261 262
247 1 261 262 263
248 1 262 263 264
249 1 263 264 265
250 1 264 265 266
251 1 265 266 267
252 1 266 267 268
253 1 267 268 269
254 1 268 269 270
255 1 269 270 271
256 1 270 271 272
257 1 271 272 273
258 1 272 273 274
259 1 273 274 275
260 1 274 275 276
261 1 275 276 277
262 1 276 277 278
263 1 277 278 279
264 1 278 279 280
265 1 281 282 283
266 1 282 283 284
267 1 283 284 285
268 1 284 285 286
269 1 285 286 287
270 1 286 287 288
271 1 287 288 289
272 1 288 289 290
273 1 289 290 291
274 1 290 291 292
275 1 291 292 293
276 1 292 293 294
277 1 293 294 295
278 1 294 295 296
279 1 295 296 297
280 1 296 297 298
281 1 297 298 299
282 1 298 299 300
283 1 299 300 301
284 1 300 301 302
285 1 301 302 303
286 1 302 303 304
287 1 303 304 305
288 1 304 305 306
289 1 305 306 307
290 1 306 307 308
291 1 307 308 309
292 1 308 309 310
293 1 309 310 311
294 1 310 311 312
295 1 311 312 313
296 1 312 313 314
297 1 313 314 315
298 1 316 317 318
299 1 317 318 319
300 1 318 319 320
301 1 319 320 321
302 1 320 321 322
303 1 321 322 323
304 1 322 323 324
305 1 323 324 325
306 1 324 325 326
307 1 325 326 327
308 1 326 327 328
309 1 327 328 329
310 1 328 329 330
311 1 329 330 331
312 1 330 331 332
313 1 331 332 333
314 1 332 333 334
315 1 333 334 335
316 1 334 335 336
317 1 335 336 337
318 1 336 337 338
319 1 337 338 339
320 1 338 339 340
321 1 339 340 341
322 1 340 341 342
323 1 341 342 343
324 1 342 343 344
325 1 343 344 345
326 1 344 345 346
327 1 345 346 347
328 1 346 347 348
329 1 347 348 349
330 1 348 349 350
331 1 351 352 353
332 1 352 353 354
333 1 353 354 355
334 1 354 355 356
335 1 355 356 357
336 1 356 357 358
337 1 357 358 359
338 1 358 359 360
339 1 359 360 361
340 1 360 361 362
341 1 361 362 363
342 1 362 363 364
343 1 363 364 365
344 1 364 365 366
345 1 365 366 367
346 1 366 367 368
347 1 367 368 369
348 1 368 369 370
349 1 369 370 371
350 1 370 371 372
351 1 371 372 373
352 1 372 373 374
353 1 373 374 375
354 1 374 375 376
355 1 375 376 377
356 1 376 377 378
357 1 377 378 379
358 1 378 379 380
359 1 379 380 381
360 1 380 381 382
361 1 381 382 383
362 1 382 383 384
363 1 383 384 385
364 1 386 387 388
365 1 387 388 389
366 1 388 389 390
367 1 389 390 391
368 1 390 391 392
369 1 391 392 393
370 1 392 393 394
371 1 393 394 395
372 1 394 395 396
373 1 395 396 397
374 1 396 397 398
375 1 397 398 399
376 1 398 399 400
377 1 399 400 401
378 1 400 401 402
379 1 401 402 403
380 1 402 403 404
381 1 403 404 405
382 1 404 405 406
383 1 405 406 407
384 1 406 407 408
385 1 407 408 409
386 1 408 409 410
387 1 409 410 411
388 1 410 411 412
389 1 411 412 413
390 1 412 413 414
391 1 413 414 415
392 1 414 415 416
393 1 415 416 417
394 1 416 417 418
395 1 417 418 419
396 1 418 419 420
397 1 421 422 423
398 1 422 423 424
399 1 423 424 425
400 1 424 425 426
401 1 425 426 427
402 1 426 427 428
403 1 427 428 429
404 1 428 429 430
405 1 429 430 431
406 1 430 431 432
407 1 431 432 433
408 1 432 433 434
409 1 433 434 435
410 1 434 435 436
411 1 435 436 437
412 1 436 437 438
413 1 437 438 439
414 1 438 439 440
415 1 439 440 441
416 1 440 441 442
417 1 441 442 443
418 1 442 443 444
419 1 443 444 445
420 1 444 445 446
421 1 445 446 447
422 1 446 447 448
423 1 447 448 449
424 1 448 449 450
425 1 449 450 451
426 1 450 451 452
427 1 451 452 453
428 1 452 453 454
429 1 453 454 455
430 1 456 457 458
431 1 457 458 459
432 1 458 459 460
433 1 459 460 461
434 1 460 461 462
435 1 461 462 463
436 1 462 463 464
437 1 463 464 465
438 1 464 465 466
439 1 465 466 467
440 1 466 467 468
441 1 467 468 469
442 1 468 469 470
443 1 469 470 471
444 1 470 471 472
445 1 471 472 473
446 1 472 473 474
447 1 473 474 475
448 1 474 475 476
449 1 475 476 477
450 1 476 477 478
451 1 477 478 479
452 1 478 479 480
453 1 479 480 481
454 1 480 481 482
455 1 481 482 483
456 1 482 483 484
457 1 483 484 485
458 1 484 485 486
459 1 485 486 487
460 1 486 487 488
461 1 487 488 489
462 1 488 489 490
463 1 491 492 493
464 1 492 493 494
465 1 493 494 495
466 1 494 495 496
467 1 495 496 497
468 1 496 497 498
469 1 497 498 499
470 1 498 499 500
471 1 499 500 501
472 1 500 501 502
473 1 501 502 503
474 1 502 503 504
475 1 503 504 505
476 1 504 505 506
477 1 505 506 507
478 1 506 507 508
479 1 507 508 509
480 1 508 509 510
481 1 509 510 511
482 1 510 511 512
483 1 511 512 513
484 1 512 513 514
485 1 513 514 515
486 1 514 515 516
487 1 515 516 517
488 1 516 517 518
489 1 517 518 519
490 1 518 519 520
491 1 519 520 521
492 1 520 521 522
493 1 521 522 523
494 1 522 523 524
495 1 523 524 525
496 1 526 527 528
497 1 527 528 529
498 1 528 529 530
499 1 529 530 531
500 1 530 531 532
501 1 531 532 533
502 1 532 533 534
503 1 533 534 535
504 1 534 535 536
505 1 535 536 537
506 1 536 537 538
507 1 537 538 539
508 1 538 539 540
509 1 539 540 541
510 1 540 541 542
511 1 541 542 543
512 1 542 543 544
513 1 543 544 545
514 1 544 545 546
515 1 545 546 547
516 1 546 547 548
517 1 547 548 549
518 1 548 549 550
519 1 549 550 551
520 1 550 551 552
521 1 551 552 553
522 1 552 553 554
523 1 553 554 555
524 1 554 555 556
525 1 555 556 557
526 1 556 557 558
527 1 557 558 559
528 1 558 559 560
529 1 561 562 563
530 1 562 563 564
531 1 563 564 565
532 1 564 565 566
533 1 565 566 567
534 1 566 567 568
535 1 567 568 569
536 1 568 569 570
537 1 569 570 571
538 1 570 571 572
539 1 571 572 573
540 1 572 573 574
541 1 573 574 575
542 1 574 575 576
543 1 575 576 577
544 1 576 577 578
545 1 577 578 579
546 1 578 579 580
547 1 579 580 581
548 1 580 581 582
549 1 581 582 583
550 1 582 583 584
551 1 583 584 585
552 1 584 585 586
553 1 585 586 587
554 1 586 587 588
555 1 587 588 589
556 1 588 589 590
557 1 589 590 591
558 1 590 591 592
559 1 591 592 593
560 1 592 593 594
561 1 593 594 595
562 1 596 597 598
563 1 597 598 599
564 1 598 599 600
565 1 599 600 601
566 1 600 601 602
567 1 601 602 603
568 1 602 603 604
569 1 603 604 605
570 1 604 605 606
571 1 605 606 607
572 1 606 607 608
573 1 607 608 609
574 1 608 609 610
575 1 609 610 611
576 1 610 611 612
577 1 611 612 613
578 1 612 613 614
579 1 613 614 615
580 1 614 615 616
581 1 615 616 617
582 1 616 617 618
583 1 617 618 619
584 1 618 619 620
585 1 619 620 621
586 1 620 621 622
587 1 621 622 623
588 1 622 623 624
589 1 623 624 625
590 1 624 625 626
591 1 625 626 627
592 1 626 627 628
593 1 627 628 629
594 1 628 629 630
595 1 631 632 633
596 1 632 633 634
597 1 633 634 635
598 1 634 635 636
599 1 635 636 637
600 1 636 637 638
601 1 637 638 639
602 1 638 639 640
603 1 639 640 641
604 1 640 641 642
605 1 641 642 643
606 1 642 643 644
607 1 643 644 645
608 1 644 645 646
609 1 645 646 647
610 1 646 647 648
611 1 647 648 649
612 1 648 649 650
613 1 649 650 651
614 1 650 651 652
615 1 651 652 653
616 1 652 653 654
617 1 653 654 655
618 1 654 655 656
619 1 655 656 657
620 1 656 657 658
621 1 657 658 659
622 1 658 659 660
623 1 659 660 661
624 1 660 661 662
625 1 661 662 663
626 1 662 663 664
627 1 663 664 665
628 1 666 667 668
629 1 667 668 669
630 1 668 669 670
631 1 669 670 671
632 1 670 671 672
633 1 671 672 673
634 1 672 673 674
635 1 673 674 675
636 1 674 675 676
637 1 675 676 677
638 1 676 677 678
639 1 677 678 679
640 1 678 679 680
641 1 679 680 681
642 1 680 681 682
643 1 681 682 683
644 1 682 683 684
645 1 683 684 685
646 1 684 685 686
647 1 685 686 687
648 1 686 687 688
649 1 687 688 689
650 1 688 689 690
651 1 689 690 691
652 1 690 691 692
653 1 691 692 693
654 1 692 693 694
655 1 693 694 695
656 1 694 695 696
657 1 695 696 697
658 1 696 697 698
659 1 697 698 699
660 1 698 699 700
661 1 701 702 703
662 1 702 703 704
663 1 703 704 705
664 1 704 705 706
665 1 705 706 707
666 1 706 707 708
667 1 707 708 709
668 1 708 709 710
669 1 709 710 711
670 1 710 711 712
671 1 711 712 713
672 1 712 713 714
673 1 713 714 715
674 1 714 715 716
675 1 715 716 717
676 1 716 717 718
677 1 717 718 719
678 1 718 719 720
679 1 719 720 721
680 1 720 721 722
681 1 721 722 723
682 1 722 723 724
683 1 723 724 725
684 1 724 725 726
685 1 725 726 727
686 1 726 727 728
687 1 727 728 729
688 1 728 729 730
689 1 729 730 731
690 1 730 731 732
691 1 731 732 733
692 1 732 733 734
693 1 733 734 735
694 1 736 737 738
695 1 737 738 739
696 1 738 739 740
697 1 739 740 741
698 1 740 741 742
699 1 741 742 743
700 1 742 743 744
701 1 743 744 745
702 1 744 745 746
703 1 745 746 747
704 1 746 747 748
705 1 747 748 749
706 1 748 749 750
707 1 749 750 751
708 1 750 751 752
709 1 751 752 753
710 1 752 753 754
711 1 753 754 755
712 1 754 755 756
713 1 755 756 757
714 1 756 757 758
715 1 757 758 759
716 1 758 759 760
717 1 759 760 761
718 1 760 761 762
719 1 761 762 763
720 1 762 763 764
721 1 763 764 765
722 1 764 765 766
723 1 765 766 767
724 1 766 767 768
725 1 767 768 769
726 1 768 769 770
727 1 771 772 773
728 1 772 773 774
729 1 773 774 775
730 1 774 775 776
731 1 775 776 777
732 1 776 777 778
733 1 777 778 779
734 1 778 779 780
735 1 779 780 781
736 1 780 781 782
737 1 781 782 783
738 1 782 783 784
739 1 783 784 785
740 1 784 785 786
741 1 785 786 787
742 1 786 787 788
743 1 787 788 789
744 1 788 789 790
745 1 789 790 791
746 1 790 791 792
747 1 791 792 793
748 1 792 793 794
749 1 793 794 795
750 1 794 795 796
751 1 795 796 797
752 1 796 797 798
753 1 797 798 799
754 1 798 799 800
755 1 799 800 801
756 1 800 801 802
757 1 801 802 803
758 1 802 803 804
759 1 803 804 805
760 1 806 807 808
761 1 807 808 809
762 1 808 809 810
763 1 809 810 811
764 1 810 811 812
765 1 811 812 813
766 1 812 813 814
767 1 813 814 815
768 1 814 815 816
769 1 815 816 817
770 1 816 817 818
771 1 817 818 819
772 1 818 819 820
773 1 819 820 821
774 1 820 821 822
775 1 821 822 823
776 1 822 823 824
777 1 823 824 825
778 1 824 825 826
779 1 825 826 827
780 1 826 827 828
781 1 827 828 829
782 1 828 829 830
783 1 829 830 831
784 1 830 831 832
785 1 831 832 833
786 1 832 833 834
787 1 833 834 835
788 1 834 835 836
789 1 835 836 837
790 1 836 837 838
791 1 837 838 839
792 1 838 839 840
793 1 841 842 843
794 1 842 843 844
795 1 843 844 845
796 1 844 845 846
797 1 845 846 847
798 1 846 847 848
799 1 847 848 849
800 1 848 849 850
801 1 849 850 851
802 1 850 851 852
803 1 851 852 853
804 1 852 853 854
805 1 853 854 855
806 1 854 855 856
807 1 855 856 857
808 1 856 857 858
809 1 857 858 859
810 1 858 859 860
811 1 859 860 861
812 1 860 861 862
813 1 861 862 863
814 1 862 863 864
815 1 863 864 865
816 1 864 865 866
817 1 865 866 867
818 1 866 867 868
819 1 867 868 869
820 1 868 869 870
821 1 869 870 871
822 1 870 871 872
823 1 871 872 873
824 1 872 873 874
825 1 873 874 875
826 1 876 877 878
827 1 877 878 879
828 1 878 879 880
829 1 879 880 881
830 1 880 881 882
831 1 881 882 883
832 1 882 883 884
833 1 883 884 885
834 1 884 885 886
835 1 885 886 887
836 1 886 887 888
837 1 887 888 889
838 1 888 889 890
839 1 889 890 891
840 1 890 891 892
841 1 891 892 893
842 1 892 893 894
843 1 893 894 895
844 1 894 895 896
845 1 895 896 897
846 1 896 897 898
847 1 897 898 899
848 1 898 899 900
849 1 899 900 901
850 1 900 901 902
851 1 901 902 903
852 1 902 903 904
853 1 903 904 905
854 1 904 905 906
855 1 905 906 907
856 1 906 907 908
857 1 907 908 909
858 1 908 909 910
859 1 911 912 913
860 1 912 913 914
861 1 913 914 915
862 1 914 915 916
863 1 915 916 917
864 1 916 917 918
865 1 917 918 919
866 1 918 919 920
867 1 919 920 921
868 1 920 921 922
869 1 921 922 923
870 1 922 923 924
871 1 923 924 925
872 1 924 925 926
873 1 925 926 927
874 1 926 927 928
875 1 927 928 929
876 1 928 929 930
877 1 929 930 931
878 1 930 931 932
879 1 931 932 933
880 1 932 933 934
881 1 933 934 935
882 1 934 935 936
883 1 935 936 937
884 1 936 937 938
885 1 937 938 939
886 1 938 939 940
887 1 939 940 941
888 1 940 941 942
889 1 941 942 943
890 1 942 943 944
891 1 943 944 945
892 1 946 947 948
893 1 947 948 949
894 1 948 949 950
895 1 949 950 951
896 1 950 951 952
897 1 951 952 953
898 1 952 953 954
899 1 953 954 955
900 1 954 955 956
901 1 955 956 957
902 1 956 957 958
903 1 957 958 959
904 1 958 959 960
905 1 959 960 961
906 1 960 961 962
907 1 961 962 963
908 1 962 963 964
909 1 963 964 965
910 1 964 965 966
911 1 965 966 967
912 1 966 967 968
913 1 967 968 969
914 1 968 969 970
915 1 969 970 971
916 1 970 971 972
917 1 971 972 973
918 1 972 973 974
919 1 973 974 975
920 1 974 975 976
921 1 975 976 977
922 1 976 977 978
923 1 977 978 979
924 1 978 979 980
925 1 981 982 983
926 1 982 983 984
927 1 983 984 985
928 1 984 985 986
929 1 985 986 987
930 1 986 987 988
931 1 987 988 989
932 1 988 989 990
933 1 989 990 991
934 1 990 991 992
935 1 991 992 993
936 1 992 993 994
937 1 993 994 995
938 1 994 995 996
939 1 995 996 997
940 1 996 997 998
941 1 997 998 999
942 1 998 999 1000
943 1 999 1000 1001
944 1 1000 1001 1002
945 1 1001 1002 1003
946 1 1002 1003 1004
947 1 1003 1004 1005
948 1 1004 1005 1006
949 1 1005 1006 1007
950 1 1006 1007 1008
951 1 1007 1008 1009
952 1 1008 1009 1010
953 1 1009 1010 1011
954 1 1010 1011 1012
955 1 1011 1012 1013
956 1 1012 1013 1014
957 1 1013 1014 1015
958 1 1016 1017 1018
959 1 1017 1018 1019
960 1 1018 1019 1020
961 1 1019 1020 1021
962 1 1020 1021 1022
963 1 1021 1022 1023
964 1 1022 1023 1024
965 1 1023 1024 1025
966 1 1024 1025 1026
967 1 1025 1026 1027
968 1 1026 1027 1028
969 1 1027 1028 1029
970 1 1028 1029 1030
971 1 1029 1030 1031
972 1 1030 1031 1032
973 1 1031 1032 1033
974 1 1032 1033 1034
975 1 1033 1034 1035
976 1 1034 1035 1036
977 1 1035 1036 1037
978 1 1036 1037 1038
979 1 1037 1038 1039
980 1 1038 1039 1040
981 1 1039 1040 1041
982 1 1040 1041 1042
983 1 1041 1042 1043
984 1 1042 1043 1044
985 1 1043 1044 1045
986 1 1044 1045 1046
987 1 1045 1046 1047
988 1 1046 1047 1048
989 1 1047 1048 1049
990 1 1048 1049 1050
